num_bands         =  26
num_wann          =  25

restart='plot'

dis_win_min       = -30.0d0
dis_froz_min      = -30.0d0
dis_win_max       = 40.0d0
dis_froz_max      =  40.0d0
dis_num_iter      =  5000

num_iter          = 2000
conv_tol          = 1.0E-10 # Ang^2
conv_window       = 50
# give up if the convergence is less than conv_tol over conv_window iterations


dis_mix_ratio = 0.5
# default (safe value) of 0.5. 1.0 will be faster, but prone in instability

guiding_centres = true
# spinors = true
begin projections
Gd: s;p;d;f  # fz3;fz(x2-y2);fx(x2-3y2);fy(3x2-y2);fxz2;fyz2;fxyz
Gd: sp3d
N: px;py;pz;s
end projections

fermi_energy = 13.9718

iprint = 2

# plot the optical dos
berry = true
berry_task = kubo
berry_kmesh = 25 25 25


# make the 3d plots (this will take ages!)
wannier_plot = true
# plot with "xcrysden --xsf GdN_W_dw_00001.xsf"


kpath = true
kpath_task = bands
kpath_num_points=100
begin kpoint_path
G  0.0000 0.0000 0.0000   X  0.0000 0.5000 0.5000
X  0.0000 0.5000 0.5000   W  0.2500 0.7500 0.5000
W  0.2500 0.7500 0.5000   K  0.3750 0.7500 0.3750
K  0.3750 0.7500 0.3750   G  0.0000 0.0000 0.0000
G  0.0000 0.0000 0.0000   L  0.5000 0.5000 0.5000
L  0.5000 0.5000 0.5000   U  0.2500 0.6250 0.6250
U  0.2500 0.6250 0.6250   W  0.2500 0.7500 0.5000
W  0.2500 0.7500 0.5000   L  0.5000 0.5000 0.5000
L  0.5000 0.5000 0.5000   K  0.3750 0.7500 0.3750
U  0.2500 0.6250 0.6250   X  0.0000 0.5000 0.5000
end kpoint_path

boltz_calc_also_dos = true
dos = true
dos_kmesh = 25





#kslice = true
#kslice_task = morb+fermi_lines
#kslice_2dkmesh = 50 50
#kslice_corner = 0.0  0.0  0.0
#kslice_b1 =     0.5 -0.5 -0.5
#kslice_b2 =     0.5  0.5  0.5

begin unit_cell_cart
Ang
-2.587453665  -0.000000000   2.587453665
 0.000000000   2.587453665   2.587453665
-2.587453665   2.587453665  -0.000000000
end unit_cell_cart

begin atoms_frac
Gd           0.0000000000       0.0000000000       0.0000000000
N            0.5000000000       0.5000000000       0.5000000000
end atoms_frac

mp_grid           = 14 14 14

begin kpoints
  0.00000000  0.00000000  0.00000000
  0.00000000  0.00000000  0.07142857
  0.00000000  0.00000000  0.14285714
  0.00000000  0.00000000  0.21428571
  0.00000000  0.00000000  0.28571429
  0.00000000  0.00000000  0.35714286
  0.00000000  0.00000000  0.42857143
  0.00000000  0.00000000  0.50000000
  0.00000000  0.00000000  0.57142857
  0.00000000  0.00000000  0.64285714
  0.00000000  0.00000000  0.71428571
  0.00000000  0.00000000  0.78571429
  0.00000000  0.00000000  0.85714286
  0.00000000  0.00000000  0.92857143
  0.00000000  0.07142857  0.00000000
  0.00000000  0.07142857  0.07142857
  0.00000000  0.07142857  0.14285714
  0.00000000  0.07142857  0.21428571
  0.00000000  0.07142857  0.28571429
  0.00000000  0.07142857  0.35714286
  0.00000000  0.07142857  0.42857143
  0.00000000  0.07142857  0.50000000
  0.00000000  0.07142857  0.57142857
  0.00000000  0.07142857  0.64285714
  0.00000000  0.07142857  0.71428571
  0.00000000  0.07142857  0.78571429
  0.00000000  0.07142857  0.85714286
  0.00000000  0.07142857  0.92857143
  0.00000000  0.14285714  0.00000000
  0.00000000  0.14285714  0.07142857
  0.00000000  0.14285714  0.14285714
  0.00000000  0.14285714  0.21428571
  0.00000000  0.14285714  0.28571429
  0.00000000  0.14285714  0.35714286
  0.00000000  0.14285714  0.42857143
  0.00000000  0.14285714  0.50000000
  0.00000000  0.14285714  0.57142857
  0.00000000  0.14285714  0.64285714
  0.00000000  0.14285714  0.71428571
  0.00000000  0.14285714  0.78571429
  0.00000000  0.14285714  0.85714286
  0.00000000  0.14285714  0.92857143
  0.00000000  0.21428571  0.00000000
  0.00000000  0.21428571  0.07142857
  0.00000000  0.21428571  0.14285714
  0.00000000  0.21428571  0.21428571
  0.00000000  0.21428571  0.28571429
  0.00000000  0.21428571  0.35714286
  0.00000000  0.21428571  0.42857143
  0.00000000  0.21428571  0.50000000
  0.00000000  0.21428571  0.57142857
  0.00000000  0.21428571  0.64285714
  0.00000000  0.21428571  0.71428571
  0.00000000  0.21428571  0.78571429
  0.00000000  0.21428571  0.85714286
  0.00000000  0.21428571  0.92857143
  0.00000000  0.28571429  0.00000000
  0.00000000  0.28571429  0.07142857
  0.00000000  0.28571429  0.14285714
  0.00000000  0.28571429  0.21428571
  0.00000000  0.28571429  0.28571429
  0.00000000  0.28571429  0.35714286
  0.00000000  0.28571429  0.42857143
  0.00000000  0.28571429  0.50000000
  0.00000000  0.28571429  0.57142857
  0.00000000  0.28571429  0.64285714
  0.00000000  0.28571429  0.71428571
  0.00000000  0.28571429  0.78571429
  0.00000000  0.28571429  0.85714286
  0.00000000  0.28571429  0.92857143
  0.00000000  0.35714286  0.00000000
  0.00000000  0.35714286  0.07142857
  0.00000000  0.35714286  0.14285714
  0.00000000  0.35714286  0.21428571
  0.00000000  0.35714286  0.28571429
  0.00000000  0.35714286  0.35714286
  0.00000000  0.35714286  0.42857143
  0.00000000  0.35714286  0.50000000
  0.00000000  0.35714286  0.57142857
  0.00000000  0.35714286  0.64285714
  0.00000000  0.35714286  0.71428571
  0.00000000  0.35714286  0.78571429
  0.00000000  0.35714286  0.85714286
  0.00000000  0.35714286  0.92857143
  0.00000000  0.42857143  0.00000000
  0.00000000  0.42857143  0.07142857
  0.00000000  0.42857143  0.14285714
  0.00000000  0.42857143  0.21428571
  0.00000000  0.42857143  0.28571429
  0.00000000  0.42857143  0.35714286
  0.00000000  0.42857143  0.42857143
  0.00000000  0.42857143  0.50000000
  0.00000000  0.42857143  0.57142857
  0.00000000  0.42857143  0.64285714
  0.00000000  0.42857143  0.71428571
  0.00000000  0.42857143  0.78571429
  0.00000000  0.42857143  0.85714286
  0.00000000  0.42857143  0.92857143
  0.00000000  0.50000000  0.00000000
  0.00000000  0.50000000  0.07142857
  0.00000000  0.50000000  0.14285714
  0.00000000  0.50000000  0.21428571
  0.00000000  0.50000000  0.28571429
  0.00000000  0.50000000  0.35714286
  0.00000000  0.50000000  0.42857143
  0.00000000  0.50000000  0.50000000
  0.00000000  0.50000000  0.57142857
  0.00000000  0.50000000  0.64285714
  0.00000000  0.50000000  0.71428571
  0.00000000  0.50000000  0.78571429
  0.00000000  0.50000000  0.85714286
  0.00000000  0.50000000  0.92857143
  0.00000000  0.57142857  0.00000000
  0.00000000  0.57142857  0.07142857
  0.00000000  0.57142857  0.14285714
  0.00000000  0.57142857  0.21428571
  0.00000000  0.57142857  0.28571429
  0.00000000  0.57142857  0.35714286
  0.00000000  0.57142857  0.42857143
  0.00000000  0.57142857  0.50000000
  0.00000000  0.57142857  0.57142857
  0.00000000  0.57142857  0.64285714
  0.00000000  0.57142857  0.71428571
  0.00000000  0.57142857  0.78571429
  0.00000000  0.57142857  0.85714286
  0.00000000  0.57142857  0.92857143
  0.00000000  0.64285714  0.00000000
  0.00000000  0.64285714  0.07142857
  0.00000000  0.64285714  0.14285714
  0.00000000  0.64285714  0.21428571
  0.00000000  0.64285714  0.28571429
  0.00000000  0.64285714  0.35714286
  0.00000000  0.64285714  0.42857143
  0.00000000  0.64285714  0.50000000
  0.00000000  0.64285714  0.57142857
  0.00000000  0.64285714  0.64285714
  0.00000000  0.64285714  0.71428571
  0.00000000  0.64285714  0.78571429
  0.00000000  0.64285714  0.85714286
  0.00000000  0.64285714  0.92857143
  0.00000000  0.71428571  0.00000000
  0.00000000  0.71428571  0.07142857
  0.00000000  0.71428571  0.14285714
  0.00000000  0.71428571  0.21428571
  0.00000000  0.71428571  0.28571429
  0.00000000  0.71428571  0.35714286
  0.00000000  0.71428571  0.42857143
  0.00000000  0.71428571  0.50000000
  0.00000000  0.71428571  0.57142857
  0.00000000  0.71428571  0.64285714
  0.00000000  0.71428571  0.71428571
  0.00000000  0.71428571  0.78571429
  0.00000000  0.71428571  0.85714286
  0.00000000  0.71428571  0.92857143
  0.00000000  0.78571429  0.00000000
  0.00000000  0.78571429  0.07142857
  0.00000000  0.78571429  0.14285714
  0.00000000  0.78571429  0.21428571
  0.00000000  0.78571429  0.28571429
  0.00000000  0.78571429  0.35714286
  0.00000000  0.78571429  0.42857143
  0.00000000  0.78571429  0.50000000
  0.00000000  0.78571429  0.57142857
  0.00000000  0.78571429  0.64285714
  0.00000000  0.78571429  0.71428571
  0.00000000  0.78571429  0.78571429
  0.00000000  0.78571429  0.85714286
  0.00000000  0.78571429  0.92857143
  0.00000000  0.85714286  0.00000000
  0.00000000  0.85714286  0.07142857
  0.00000000  0.85714286  0.14285714
  0.00000000  0.85714286  0.21428571
  0.00000000  0.85714286  0.28571429
  0.00000000  0.85714286  0.35714286
  0.00000000  0.85714286  0.42857143
  0.00000000  0.85714286  0.50000000
  0.00000000  0.85714286  0.57142857
  0.00000000  0.85714286  0.64285714
  0.00000000  0.85714286  0.71428571
  0.00000000  0.85714286  0.78571429
  0.00000000  0.85714286  0.85714286
  0.00000000  0.85714286  0.92857143
  0.00000000  0.92857143  0.00000000
  0.00000000  0.92857143  0.07142857
  0.00000000  0.92857143  0.14285714
  0.00000000  0.92857143  0.21428571
  0.00000000  0.92857143  0.28571429
  0.00000000  0.92857143  0.35714286
  0.00000000  0.92857143  0.42857143
  0.00000000  0.92857143  0.50000000
  0.00000000  0.92857143  0.57142857
  0.00000000  0.92857143  0.64285714
  0.00000000  0.92857143  0.71428571
  0.00000000  0.92857143  0.78571429
  0.00000000  0.92857143  0.85714286
  0.00000000  0.92857143  0.92857143
  0.07142857  0.00000000  0.00000000
  0.07142857  0.00000000  0.07142857
  0.07142857  0.00000000  0.14285714
  0.07142857  0.00000000  0.21428571
  0.07142857  0.00000000  0.28571429
  0.07142857  0.00000000  0.35714286
  0.07142857  0.00000000  0.42857143
  0.07142857  0.00000000  0.50000000
  0.07142857  0.00000000  0.57142857
  0.07142857  0.00000000  0.64285714
  0.07142857  0.00000000  0.71428571
  0.07142857  0.00000000  0.78571429
  0.07142857  0.00000000  0.85714286
  0.07142857  0.00000000  0.92857143
  0.07142857  0.07142857  0.00000000
  0.07142857  0.07142857  0.07142857
  0.07142857  0.07142857  0.14285714
  0.07142857  0.07142857  0.21428571
  0.07142857  0.07142857  0.28571429
  0.07142857  0.07142857  0.35714286
  0.07142857  0.07142857  0.42857143
  0.07142857  0.07142857  0.50000000
  0.07142857  0.07142857  0.57142857
  0.07142857  0.07142857  0.64285714
  0.07142857  0.07142857  0.71428571
  0.07142857  0.07142857  0.78571429
  0.07142857  0.07142857  0.85714286
  0.07142857  0.07142857  0.92857143
  0.07142857  0.14285714  0.00000000
  0.07142857  0.14285714  0.07142857
  0.07142857  0.14285714  0.14285714
  0.07142857  0.14285714  0.21428571
  0.07142857  0.14285714  0.28571429
  0.07142857  0.14285714  0.35714286
  0.07142857  0.14285714  0.42857143
  0.07142857  0.14285714  0.50000000
  0.07142857  0.14285714  0.57142857
  0.07142857  0.14285714  0.64285714
  0.07142857  0.14285714  0.71428571
  0.07142857  0.14285714  0.78571429
  0.07142857  0.14285714  0.85714286
  0.07142857  0.14285714  0.92857143
  0.07142857  0.21428571  0.00000000
  0.07142857  0.21428571  0.07142857
  0.07142857  0.21428571  0.14285714
  0.07142857  0.21428571  0.21428571
  0.07142857  0.21428571  0.28571429
  0.07142857  0.21428571  0.35714286
  0.07142857  0.21428571  0.42857143
  0.07142857  0.21428571  0.50000000
  0.07142857  0.21428571  0.57142857
  0.07142857  0.21428571  0.64285714
  0.07142857  0.21428571  0.71428571
  0.07142857  0.21428571  0.78571429
  0.07142857  0.21428571  0.85714286
  0.07142857  0.21428571  0.92857143
  0.07142857  0.28571429  0.00000000
  0.07142857  0.28571429  0.07142857
  0.07142857  0.28571429  0.14285714
  0.07142857  0.28571429  0.21428571
  0.07142857  0.28571429  0.28571429
  0.07142857  0.28571429  0.35714286
  0.07142857  0.28571429  0.42857143
  0.07142857  0.28571429  0.50000000
  0.07142857  0.28571429  0.57142857
  0.07142857  0.28571429  0.64285714
  0.07142857  0.28571429  0.71428571
  0.07142857  0.28571429  0.78571429
  0.07142857  0.28571429  0.85714286
  0.07142857  0.28571429  0.92857143
  0.07142857  0.35714286  0.00000000
  0.07142857  0.35714286  0.07142857
  0.07142857  0.35714286  0.14285714
  0.07142857  0.35714286  0.21428571
  0.07142857  0.35714286  0.28571429
  0.07142857  0.35714286  0.35714286
  0.07142857  0.35714286  0.42857143
  0.07142857  0.35714286  0.50000000
  0.07142857  0.35714286  0.57142857
  0.07142857  0.35714286  0.64285714
  0.07142857  0.35714286  0.71428571
  0.07142857  0.35714286  0.78571429
  0.07142857  0.35714286  0.85714286
  0.07142857  0.35714286  0.92857143
  0.07142857  0.42857143  0.00000000
  0.07142857  0.42857143  0.07142857
  0.07142857  0.42857143  0.14285714
  0.07142857  0.42857143  0.21428571
  0.07142857  0.42857143  0.28571429
  0.07142857  0.42857143  0.35714286
  0.07142857  0.42857143  0.42857143
  0.07142857  0.42857143  0.50000000
  0.07142857  0.42857143  0.57142857
  0.07142857  0.42857143  0.64285714
  0.07142857  0.42857143  0.71428571
  0.07142857  0.42857143  0.78571429
  0.07142857  0.42857143  0.85714286
  0.07142857  0.42857143  0.92857143
  0.07142857  0.50000000  0.00000000
  0.07142857  0.50000000  0.07142857
  0.07142857  0.50000000  0.14285714
  0.07142857  0.50000000  0.21428571
  0.07142857  0.50000000  0.28571429
  0.07142857  0.50000000  0.35714286
  0.07142857  0.50000000  0.42857143
  0.07142857  0.50000000  0.50000000
  0.07142857  0.50000000  0.57142857
  0.07142857  0.50000000  0.64285714
  0.07142857  0.50000000  0.71428571
  0.07142857  0.50000000  0.78571429
  0.07142857  0.50000000  0.85714286
  0.07142857  0.50000000  0.92857143
  0.07142857  0.57142857  0.00000000
  0.07142857  0.57142857  0.07142857
  0.07142857  0.57142857  0.14285714
  0.07142857  0.57142857  0.21428571
  0.07142857  0.57142857  0.28571429
  0.07142857  0.57142857  0.35714286
  0.07142857  0.57142857  0.42857143
  0.07142857  0.57142857  0.50000000
  0.07142857  0.57142857  0.57142857
  0.07142857  0.57142857  0.64285714
  0.07142857  0.57142857  0.71428571
  0.07142857  0.57142857  0.78571429
  0.07142857  0.57142857  0.85714286
  0.07142857  0.57142857  0.92857143
  0.07142857  0.64285714  0.00000000
  0.07142857  0.64285714  0.07142857
  0.07142857  0.64285714  0.14285714
  0.07142857  0.64285714  0.21428571
  0.07142857  0.64285714  0.28571429
  0.07142857  0.64285714  0.35714286
  0.07142857  0.64285714  0.42857143
  0.07142857  0.64285714  0.50000000
  0.07142857  0.64285714  0.57142857
  0.07142857  0.64285714  0.64285714
  0.07142857  0.64285714  0.71428571
  0.07142857  0.64285714  0.78571429
  0.07142857  0.64285714  0.85714286
  0.07142857  0.64285714  0.92857143
  0.07142857  0.71428571  0.00000000
  0.07142857  0.71428571  0.07142857
  0.07142857  0.71428571  0.14285714
  0.07142857  0.71428571  0.21428571
  0.07142857  0.71428571  0.28571429
  0.07142857  0.71428571  0.35714286
  0.07142857  0.71428571  0.42857143
  0.07142857  0.71428571  0.50000000
  0.07142857  0.71428571  0.57142857
  0.07142857  0.71428571  0.64285714
  0.07142857  0.71428571  0.71428571
  0.07142857  0.71428571  0.78571429
  0.07142857  0.71428571  0.85714286
  0.07142857  0.71428571  0.92857143
  0.07142857  0.78571429  0.00000000
  0.07142857  0.78571429  0.07142857
  0.07142857  0.78571429  0.14285714
  0.07142857  0.78571429  0.21428571
  0.07142857  0.78571429  0.28571429
  0.07142857  0.78571429  0.35714286
  0.07142857  0.78571429  0.42857143
  0.07142857  0.78571429  0.50000000
  0.07142857  0.78571429  0.57142857
  0.07142857  0.78571429  0.64285714
  0.07142857  0.78571429  0.71428571
  0.07142857  0.78571429  0.78571429
  0.07142857  0.78571429  0.85714286
  0.07142857  0.78571429  0.92857143
  0.07142857  0.85714286  0.00000000
  0.07142857  0.85714286  0.07142857
  0.07142857  0.85714286  0.14285714
  0.07142857  0.85714286  0.21428571
  0.07142857  0.85714286  0.28571429
  0.07142857  0.85714286  0.35714286
  0.07142857  0.85714286  0.42857143
  0.07142857  0.85714286  0.50000000
  0.07142857  0.85714286  0.57142857
  0.07142857  0.85714286  0.64285714
  0.07142857  0.85714286  0.71428571
  0.07142857  0.85714286  0.78571429
  0.07142857  0.85714286  0.85714286
  0.07142857  0.85714286  0.92857143
  0.07142857  0.92857143  0.00000000
  0.07142857  0.92857143  0.07142857
  0.07142857  0.92857143  0.14285714
  0.07142857  0.92857143  0.21428571
  0.07142857  0.92857143  0.28571429
  0.07142857  0.92857143  0.35714286
  0.07142857  0.92857143  0.42857143
  0.07142857  0.92857143  0.50000000
  0.07142857  0.92857143  0.57142857
  0.07142857  0.92857143  0.64285714
  0.07142857  0.92857143  0.71428571
  0.07142857  0.92857143  0.78571429
  0.07142857  0.92857143  0.85714286
  0.07142857  0.92857143  0.92857143
  0.14285714  0.00000000  0.00000000
  0.14285714  0.00000000  0.07142857
  0.14285714  0.00000000  0.14285714
  0.14285714  0.00000000  0.21428571
  0.14285714  0.00000000  0.28571429
  0.14285714  0.00000000  0.35714286
  0.14285714  0.00000000  0.42857143
  0.14285714  0.00000000  0.50000000
  0.14285714  0.00000000  0.57142857
  0.14285714  0.00000000  0.64285714
  0.14285714  0.00000000  0.71428571
  0.14285714  0.00000000  0.78571429
  0.14285714  0.00000000  0.85714286
  0.14285714  0.00000000  0.92857143
  0.14285714  0.07142857  0.00000000
  0.14285714  0.07142857  0.07142857
  0.14285714  0.07142857  0.14285714
  0.14285714  0.07142857  0.21428571
  0.14285714  0.07142857  0.28571429
  0.14285714  0.07142857  0.35714286
  0.14285714  0.07142857  0.42857143
  0.14285714  0.07142857  0.50000000
  0.14285714  0.07142857  0.57142857
  0.14285714  0.07142857  0.64285714
  0.14285714  0.07142857  0.71428571
  0.14285714  0.07142857  0.78571429
  0.14285714  0.07142857  0.85714286
  0.14285714  0.07142857  0.92857143
  0.14285714  0.14285714  0.00000000
  0.14285714  0.14285714  0.07142857
  0.14285714  0.14285714  0.14285714
  0.14285714  0.14285714  0.21428571
  0.14285714  0.14285714  0.28571429
  0.14285714  0.14285714  0.35714286
  0.14285714  0.14285714  0.42857143
  0.14285714  0.14285714  0.50000000
  0.14285714  0.14285714  0.57142857
  0.14285714  0.14285714  0.64285714
  0.14285714  0.14285714  0.71428571
  0.14285714  0.14285714  0.78571429
  0.14285714  0.14285714  0.85714286
  0.14285714  0.14285714  0.92857143
  0.14285714  0.21428571  0.00000000
  0.14285714  0.21428571  0.07142857
  0.14285714  0.21428571  0.14285714
  0.14285714  0.21428571  0.21428571
  0.14285714  0.21428571  0.28571429
  0.14285714  0.21428571  0.35714286
  0.14285714  0.21428571  0.42857143
  0.14285714  0.21428571  0.50000000
  0.14285714  0.21428571  0.57142857
  0.14285714  0.21428571  0.64285714
  0.14285714  0.21428571  0.71428571
  0.14285714  0.21428571  0.78571429
  0.14285714  0.21428571  0.85714286
  0.14285714  0.21428571  0.92857143
  0.14285714  0.28571429  0.00000000
  0.14285714  0.28571429  0.07142857
  0.14285714  0.28571429  0.14285714
  0.14285714  0.28571429  0.21428571
  0.14285714  0.28571429  0.28571429
  0.14285714  0.28571429  0.35714286
  0.14285714  0.28571429  0.42857143
  0.14285714  0.28571429  0.50000000
  0.14285714  0.28571429  0.57142857
  0.14285714  0.28571429  0.64285714
  0.14285714  0.28571429  0.71428571
  0.14285714  0.28571429  0.78571429
  0.14285714  0.28571429  0.85714286
  0.14285714  0.28571429  0.92857143
  0.14285714  0.35714286  0.00000000
  0.14285714  0.35714286  0.07142857
  0.14285714  0.35714286  0.14285714
  0.14285714  0.35714286  0.21428571
  0.14285714  0.35714286  0.28571429
  0.14285714  0.35714286  0.35714286
  0.14285714  0.35714286  0.42857143
  0.14285714  0.35714286  0.50000000
  0.14285714  0.35714286  0.57142857
  0.14285714  0.35714286  0.64285714
  0.14285714  0.35714286  0.71428571
  0.14285714  0.35714286  0.78571429
  0.14285714  0.35714286  0.85714286
  0.14285714  0.35714286  0.92857143
  0.14285714  0.42857143  0.00000000
  0.14285714  0.42857143  0.07142857
  0.14285714  0.42857143  0.14285714
  0.14285714  0.42857143  0.21428571
  0.14285714  0.42857143  0.28571429
  0.14285714  0.42857143  0.35714286
  0.14285714  0.42857143  0.42857143
  0.14285714  0.42857143  0.50000000
  0.14285714  0.42857143  0.57142857
  0.14285714  0.42857143  0.64285714
  0.14285714  0.42857143  0.71428571
  0.14285714  0.42857143  0.78571429
  0.14285714  0.42857143  0.85714286
  0.14285714  0.42857143  0.92857143
  0.14285714  0.50000000  0.00000000
  0.14285714  0.50000000  0.07142857
  0.14285714  0.50000000  0.14285714
  0.14285714  0.50000000  0.21428571
  0.14285714  0.50000000  0.28571429
  0.14285714  0.50000000  0.35714286
  0.14285714  0.50000000  0.42857143
  0.14285714  0.50000000  0.50000000
  0.14285714  0.50000000  0.57142857
  0.14285714  0.50000000  0.64285714
  0.14285714  0.50000000  0.71428571
  0.14285714  0.50000000  0.78571429
  0.14285714  0.50000000  0.85714286
  0.14285714  0.50000000  0.92857143
  0.14285714  0.57142857  0.00000000
  0.14285714  0.57142857  0.07142857
  0.14285714  0.57142857  0.14285714
  0.14285714  0.57142857  0.21428571
  0.14285714  0.57142857  0.28571429
  0.14285714  0.57142857  0.35714286
  0.14285714  0.57142857  0.42857143
  0.14285714  0.57142857  0.50000000
  0.14285714  0.57142857  0.57142857
  0.14285714  0.57142857  0.64285714
  0.14285714  0.57142857  0.71428571
  0.14285714  0.57142857  0.78571429
  0.14285714  0.57142857  0.85714286
  0.14285714  0.57142857  0.92857143
  0.14285714  0.64285714  0.00000000
  0.14285714  0.64285714  0.07142857
  0.14285714  0.64285714  0.14285714
  0.14285714  0.64285714  0.21428571
  0.14285714  0.64285714  0.28571429
  0.14285714  0.64285714  0.35714286
  0.14285714  0.64285714  0.42857143
  0.14285714  0.64285714  0.50000000
  0.14285714  0.64285714  0.57142857
  0.14285714  0.64285714  0.64285714
  0.14285714  0.64285714  0.71428571
  0.14285714  0.64285714  0.78571429
  0.14285714  0.64285714  0.85714286
  0.14285714  0.64285714  0.92857143
  0.14285714  0.71428571  0.00000000
  0.14285714  0.71428571  0.07142857
  0.14285714  0.71428571  0.14285714
  0.14285714  0.71428571  0.21428571
  0.14285714  0.71428571  0.28571429
  0.14285714  0.71428571  0.35714286
  0.14285714  0.71428571  0.42857143
  0.14285714  0.71428571  0.50000000
  0.14285714  0.71428571  0.57142857
  0.14285714  0.71428571  0.64285714
  0.14285714  0.71428571  0.71428571
  0.14285714  0.71428571  0.78571429
  0.14285714  0.71428571  0.85714286
  0.14285714  0.71428571  0.92857143
  0.14285714  0.78571429  0.00000000
  0.14285714  0.78571429  0.07142857
  0.14285714  0.78571429  0.14285714
  0.14285714  0.78571429  0.21428571
  0.14285714  0.78571429  0.28571429
  0.14285714  0.78571429  0.35714286
  0.14285714  0.78571429  0.42857143
  0.14285714  0.78571429  0.50000000
  0.14285714  0.78571429  0.57142857
  0.14285714  0.78571429  0.64285714
  0.14285714  0.78571429  0.71428571
  0.14285714  0.78571429  0.78571429
  0.14285714  0.78571429  0.85714286
  0.14285714  0.78571429  0.92857143
  0.14285714  0.85714286  0.00000000
  0.14285714  0.85714286  0.07142857
  0.14285714  0.85714286  0.14285714
  0.14285714  0.85714286  0.21428571
  0.14285714  0.85714286  0.28571429
  0.14285714  0.85714286  0.35714286
  0.14285714  0.85714286  0.42857143
  0.14285714  0.85714286  0.50000000
  0.14285714  0.85714286  0.57142857
  0.14285714  0.85714286  0.64285714
  0.14285714  0.85714286  0.71428571
  0.14285714  0.85714286  0.78571429
  0.14285714  0.85714286  0.85714286
  0.14285714  0.85714286  0.92857143
  0.14285714  0.92857143  0.00000000
  0.14285714  0.92857143  0.07142857
  0.14285714  0.92857143  0.14285714
  0.14285714  0.92857143  0.21428571
  0.14285714  0.92857143  0.28571429
  0.14285714  0.92857143  0.35714286
  0.14285714  0.92857143  0.42857143
  0.14285714  0.92857143  0.50000000
  0.14285714  0.92857143  0.57142857
  0.14285714  0.92857143  0.64285714
  0.14285714  0.92857143  0.71428571
  0.14285714  0.92857143  0.78571429
  0.14285714  0.92857143  0.85714286
  0.14285714  0.92857143  0.92857143
  0.21428571  0.00000000  0.00000000
  0.21428571  0.00000000  0.07142857
  0.21428571  0.00000000  0.14285714
  0.21428571  0.00000000  0.21428571
  0.21428571  0.00000000  0.28571429
  0.21428571  0.00000000  0.35714286
  0.21428571  0.00000000  0.42857143
  0.21428571  0.00000000  0.50000000
  0.21428571  0.00000000  0.57142857
  0.21428571  0.00000000  0.64285714
  0.21428571  0.00000000  0.71428571
  0.21428571  0.00000000  0.78571429
  0.21428571  0.00000000  0.85714286
  0.21428571  0.00000000  0.92857143
  0.21428571  0.07142857  0.00000000
  0.21428571  0.07142857  0.07142857
  0.21428571  0.07142857  0.14285714
  0.21428571  0.07142857  0.21428571
  0.21428571  0.07142857  0.28571429
  0.21428571  0.07142857  0.35714286
  0.21428571  0.07142857  0.42857143
  0.21428571  0.07142857  0.50000000
  0.21428571  0.07142857  0.57142857
  0.21428571  0.07142857  0.64285714
  0.21428571  0.07142857  0.71428571
  0.21428571  0.07142857  0.78571429
  0.21428571  0.07142857  0.85714286
  0.21428571  0.07142857  0.92857143
  0.21428571  0.14285714  0.00000000
  0.21428571  0.14285714  0.07142857
  0.21428571  0.14285714  0.14285714
  0.21428571  0.14285714  0.21428571
  0.21428571  0.14285714  0.28571429
  0.21428571  0.14285714  0.35714286
  0.21428571  0.14285714  0.42857143
  0.21428571  0.14285714  0.50000000
  0.21428571  0.14285714  0.57142857
  0.21428571  0.14285714  0.64285714
  0.21428571  0.14285714  0.71428571
  0.21428571  0.14285714  0.78571429
  0.21428571  0.14285714  0.85714286
  0.21428571  0.14285714  0.92857143
  0.21428571  0.21428571  0.00000000
  0.21428571  0.21428571  0.07142857
  0.21428571  0.21428571  0.14285714
  0.21428571  0.21428571  0.21428571
  0.21428571  0.21428571  0.28571429
  0.21428571  0.21428571  0.35714286
  0.21428571  0.21428571  0.42857143
  0.21428571  0.21428571  0.50000000
  0.21428571  0.21428571  0.57142857
  0.21428571  0.21428571  0.64285714
  0.21428571  0.21428571  0.71428571
  0.21428571  0.21428571  0.78571429
  0.21428571  0.21428571  0.85714286
  0.21428571  0.21428571  0.92857143
  0.21428571  0.28571429  0.00000000
  0.21428571  0.28571429  0.07142857
  0.21428571  0.28571429  0.14285714
  0.21428571  0.28571429  0.21428571
  0.21428571  0.28571429  0.28571429
  0.21428571  0.28571429  0.35714286
  0.21428571  0.28571429  0.42857143
  0.21428571  0.28571429  0.50000000
  0.21428571  0.28571429  0.57142857
  0.21428571  0.28571429  0.64285714
  0.21428571  0.28571429  0.71428571
  0.21428571  0.28571429  0.78571429
  0.21428571  0.28571429  0.85714286
  0.21428571  0.28571429  0.92857143
  0.21428571  0.35714286  0.00000000
  0.21428571  0.35714286  0.07142857
  0.21428571  0.35714286  0.14285714
  0.21428571  0.35714286  0.21428571
  0.21428571  0.35714286  0.28571429
  0.21428571  0.35714286  0.35714286
  0.21428571  0.35714286  0.42857143
  0.21428571  0.35714286  0.50000000
  0.21428571  0.35714286  0.57142857
  0.21428571  0.35714286  0.64285714
  0.21428571  0.35714286  0.71428571
  0.21428571  0.35714286  0.78571429
  0.21428571  0.35714286  0.85714286
  0.21428571  0.35714286  0.92857143
  0.21428571  0.42857143  0.00000000
  0.21428571  0.42857143  0.07142857
  0.21428571  0.42857143  0.14285714
  0.21428571  0.42857143  0.21428571
  0.21428571  0.42857143  0.28571429
  0.21428571  0.42857143  0.35714286
  0.21428571  0.42857143  0.42857143
  0.21428571  0.42857143  0.50000000
  0.21428571  0.42857143  0.57142857
  0.21428571  0.42857143  0.64285714
  0.21428571  0.42857143  0.71428571
  0.21428571  0.42857143  0.78571429
  0.21428571  0.42857143  0.85714286
  0.21428571  0.42857143  0.92857143
  0.21428571  0.50000000  0.00000000
  0.21428571  0.50000000  0.07142857
  0.21428571  0.50000000  0.14285714
  0.21428571  0.50000000  0.21428571
  0.21428571  0.50000000  0.28571429
  0.21428571  0.50000000  0.35714286
  0.21428571  0.50000000  0.42857143
  0.21428571  0.50000000  0.50000000
  0.21428571  0.50000000  0.57142857
  0.21428571  0.50000000  0.64285714
  0.21428571  0.50000000  0.71428571
  0.21428571  0.50000000  0.78571429
  0.21428571  0.50000000  0.85714286
  0.21428571  0.50000000  0.92857143
  0.21428571  0.57142857  0.00000000
  0.21428571  0.57142857  0.07142857
  0.21428571  0.57142857  0.14285714
  0.21428571  0.57142857  0.21428571
  0.21428571  0.57142857  0.28571429
  0.21428571  0.57142857  0.35714286
  0.21428571  0.57142857  0.42857143
  0.21428571  0.57142857  0.50000000
  0.21428571  0.57142857  0.57142857
  0.21428571  0.57142857  0.64285714
  0.21428571  0.57142857  0.71428571
  0.21428571  0.57142857  0.78571429
  0.21428571  0.57142857  0.85714286
  0.21428571  0.57142857  0.92857143
  0.21428571  0.64285714  0.00000000
  0.21428571  0.64285714  0.07142857
  0.21428571  0.64285714  0.14285714
  0.21428571  0.64285714  0.21428571
  0.21428571  0.64285714  0.28571429
  0.21428571  0.64285714  0.35714286
  0.21428571  0.64285714  0.42857143
  0.21428571  0.64285714  0.50000000
  0.21428571  0.64285714  0.57142857
  0.21428571  0.64285714  0.64285714
  0.21428571  0.64285714  0.71428571
  0.21428571  0.64285714  0.78571429
  0.21428571  0.64285714  0.85714286
  0.21428571  0.64285714  0.92857143
  0.21428571  0.71428571  0.00000000
  0.21428571  0.71428571  0.07142857
  0.21428571  0.71428571  0.14285714
  0.21428571  0.71428571  0.21428571
  0.21428571  0.71428571  0.28571429
  0.21428571  0.71428571  0.35714286
  0.21428571  0.71428571  0.42857143
  0.21428571  0.71428571  0.50000000
  0.21428571  0.71428571  0.57142857
  0.21428571  0.71428571  0.64285714
  0.21428571  0.71428571  0.71428571
  0.21428571  0.71428571  0.78571429
  0.21428571  0.71428571  0.85714286
  0.21428571  0.71428571  0.92857143
  0.21428571  0.78571429  0.00000000
  0.21428571  0.78571429  0.07142857
  0.21428571  0.78571429  0.14285714
  0.21428571  0.78571429  0.21428571
  0.21428571  0.78571429  0.28571429
  0.21428571  0.78571429  0.35714286
  0.21428571  0.78571429  0.42857143
  0.21428571  0.78571429  0.50000000
  0.21428571  0.78571429  0.57142857
  0.21428571  0.78571429  0.64285714
  0.21428571  0.78571429  0.71428571
  0.21428571  0.78571429  0.78571429
  0.21428571  0.78571429  0.85714286