&CONTROL
  calculation = 'nscf'
  title = 'GdN_W_nscf'
  verbosity = 'high'
  restart_mode = 'from_scratch'
  etot_conv_thr =   8.0000000000d-05
  forc_conv_thr =   1.0000000000d-04
  outdir = '/nfs/scratch2/trewicedwa/GdN_W/out/'
  prefix = 'GdN_W'
  pseudo_dir = '/nfs/home/trewicedwa/orbitalMagnetism/pseudo/'
  disk_io = 'low'
  tprnfor = .true.
  tstress = .true.
/
&SYSTEM
  degauss =   1.4699723600d-02
  ecutrho =   320
  ecutwfc =   80
  ibrav = 0
  nat = 2
  nosym = .true.
  nspin = 2
  ntyp = 2
  nbnd = 26 ! num Kohn-Sham states
  occupations = 'smearing'
  starting_magnetization(1) =   1.0
  starting_magnetization(2) =   0.0
  lda_plus_u=.true.
  lda_plus_u_kind=0
  Hubbard_U(1) = 8.4
  Hubbard_U_back(1) = 6.6
/
&ELECTRONS
  conv_thr =   1.6000000000d-09
  electron_maxstep = 80
  mixing_beta =   4.0000000000d-01
/
&IONS
/
&CELL
/
CELL_PARAMETERS (angstrom)
  -2.587453665  -0.000000000   2.587453665
   0.000000000   2.587453665   2.587453665
  -2.587453665   2.587453665  -0.000000000
ATOMIC_SPECIES
Gd     157.25 Gd.GGA-PBE-paw-v1.0.UPF
N      14.0067 N.pbe-kjpaw.UPF
ATOMIC_POSITIONS (crystal)
Gd           0.0000000000       0.0000000000       0.0000000000
N            0.5000000000       0.5000000000       0.5000000000
K_POINTS crystal
2744
  0.00000000  0.00000000  0.00000000  3.644315e-04
  0.00000000  0.00000000  0.07142857  3.644315e-04
  0.00000000  0.00000000  0.14285714  3.644315e-04
  0.00000000  0.00000000  0.21428571  3.644315e-04
  0.00000000  0.00000000  0.28571429  3.644315e-04
  0.00000000  0.00000000  0.35714286  3.644315e-04
  0.00000000  0.00000000  0.42857143  3.644315e-04
  0.00000000  0.00000000  0.50000000  3.644315e-04
  0.00000000  0.00000000  0.57142857  3.644315e-04
  0.00000000  0.00000000  0.64285714  3.644315e-04
  0.00000000  0.00000000  0.71428571  3.644315e-04
  0.00000000  0.00000000  0.78571429  3.644315e-04
  0.00000000  0.00000000  0.85714286  3.644315e-04
  0.00000000  0.00000000  0.92857143  3.644315e-04
  0.00000000  0.07142857  0.00000000  3.644315e-04
  0.00000000  0.07142857  0.07142857  3.644315e-04
  0.00000000  0.07142857  0.14285714  3.644315e-04
  0.00000000  0.07142857  0.21428571  3.644315e-04
  0.00000000  0.07142857  0.28571429  3.644315e-04
  0.00000000  0.07142857  0.35714286  3.644315e-04
  0.00000000  0.07142857  0.42857143  3.644315e-04
  0.00000000  0.07142857  0.50000000  3.644315e-04
  0.00000000  0.07142857  0.57142857  3.644315e-04
  0.00000000  0.07142857  0.64285714  3.644315e-04
  0.00000000  0.07142857  0.71428571  3.644315e-04
  0.00000000  0.07142857  0.78571429  3.644315e-04
  0.00000000  0.07142857  0.85714286  3.644315e-04
  0.00000000  0.07142857  0.92857143  3.644315e-04
  0.00000000  0.14285714  0.00000000  3.644315e-04
  0.00000000  0.14285714  0.07142857  3.644315e-04
  0.00000000  0.14285714  0.14285714  3.644315e-04
  0.00000000  0.14285714  0.21428571  3.644315e-04
  0.00000000  0.14285714  0.28571429  3.644315e-04
  0.00000000  0.14285714  0.35714286  3.644315e-04
  0.00000000  0.14285714  0.42857143  3.644315e-04
  0.00000000  0.14285714  0.50000000  3.644315e-04
  0.00000000  0.14285714  0.57142857  3.644315e-04
  0.00000000  0.14285714  0.64285714  3.644315e-04
  0.00000000  0.14285714  0.71428571  3.644315e-04
  0.00000000  0.14285714  0.78571429  3.644315e-04
  0.00000000  0.14285714  0.85714286  3.644315e-04
  0.00000000  0.14285714  0.92857143  3.644315e-04
  0.00000000  0.21428571  0.00000000  3.644315e-04
  0.00000000  0.21428571  0.07142857  3.644315e-04
  0.00000000  0.21428571  0.14285714  3.644315e-04
  0.00000000  0.21428571  0.21428571  3.644315e-04
  0.00000000  0.21428571  0.28571429  3.644315e-04
  0.00000000  0.21428571  0.35714286  3.644315e-04
  0.00000000  0.21428571  0.42857143  3.644315e-04
  0.00000000  0.21428571  0.50000000  3.644315e-04
  0.00000000  0.21428571  0.57142857  3.644315e-04
  0.00000000  0.21428571  0.64285714  3.644315e-04
  0.00000000  0.21428571  0.71428571  3.644315e-04
  0.00000000  0.21428571  0.78571429  3.644315e-04
  0.00000000  0.21428571  0.85714286  3.644315e-04
  0.00000000  0.21428571  0.92857143  3.644315e-04
  0.00000000  0.28571429  0.00000000  3.644315e-04
  0.00000000  0.28571429  0.07142857  3.644315e-04
  0.00000000  0.28571429  0.14285714  3.644315e-04
  0.00000000  0.28571429  0.21428571  3.644315e-04
  0.00000000  0.28571429  0.28571429  3.644315e-04
  0.00000000  0.28571429  0.35714286  3.644315e-04
  0.00000000  0.28571429  0.42857143  3.644315e-04
  0.00000000  0.28571429  0.50000000  3.644315e-04
  0.00000000  0.28571429  0.57142857  3.644315e-04
  0.00000000  0.28571429  0.64285714  3.644315e-04
  0.00000000  0.28571429  0.71428571  3.644315e-04
  0.00000000  0.28571429  0.78571429  3.644315e-04
  0.00000000  0.28571429  0.85714286  3.644315e-04
  0.00000000  0.28571429  0.92857143  3.644315e-04
  0.00000000  0.35714286  0.00000000  3.644315e-04
  0.00000000  0.35714286  0.07142857  3.644315e-04
  0.00000000  0.35714286  0.14285714  3.644315e-04
  0.00000000  0.35714286  0.21428571  3.644315e-04
  0.00000000  0.35714286  0.28571429  3.644315e-04
  0.00000000  0.35714286  0.35714286  3.644315e-04
  0.00000000  0.35714286  0.42857143  3.644315e-04
  0.00000000  0.35714286  0.50000000  3.644315e-04
  0.00000000  0.35714286  0.57142857  3.644315e-04
  0.00000000  0.35714286  0.64285714  3.644315e-04
  0.00000000  0.35714286  0.71428571  3.644315e-04
  0.00000000  0.35714286  0.78571429  3.644315e-04
  0.00000000  0.35714286  0.85714286  3.644315e-04
  0.00000000  0.35714286  0.92857143  3.644315e-04
  0.00000000  0.42857143  0.00000000  3.644315e-04
  0.00000000  0.42857143  0.07142857  3.644315e-04
  0.00000000  0.42857143  0.14285714  3.644315e-04
  0.00000000  0.42857143  0.21428571  3.644315e-04
  0.00000000  0.42857143  0.28571429  3.644315e-04
  0.00000000  0.42857143  0.35714286  3.644315e-04
  0.00000000  0.42857143  0.42857143  3.644315e-04
  0.00000000  0.42857143  0.50000000  3.644315e-04
  0.00000000  0.42857143  0.57142857  3.644315e-04
  0.00000000  0.42857143  0.64285714  3.644315e-04
  0.00000000  0.42857143  0.71428571  3.644315e-04
  0.00000000  0.42857143  0.78571429  3.644315e-04
  0.00000000  0.42857143  0.85714286  3.644315e-04
  0.00000000  0.42857143  0.92857143  3.644315e-04
  0.00000000  0.50000000  0.00000000  3.644315e-04
  0.00000000  0.50000000  0.07142857  3.644315e-04
  0.00000000  0.50000000  0.14285714  3.644315e-04
  0.00000000  0.50000000  0.21428571  3.644315e-04
  0.00000000  0.50000000  0.28571429  3.644315e-04
  0.00000000  0.50000000  0.35714286  3.644315e-04
  0.00000000  0.50000000  0.42857143  3.644315e-04
  0.00000000  0.50000000  0.50000000  3.644315e-04
  0.00000000  0.50000000  0.57142857  3.644315e-04
  0.00000000  0.50000000  0.64285714  3.644315e-04
  0.00000000  0.50000000  0.71428571  3.644315e-04
  0.00000000  0.50000000  0.78571429  3.644315e-04
  0.00000000  0.50000000  0.85714286  3.644315e-04
  0.00000000  0.50000000  0.92857143  3.644315e-04
  0.00000000  0.57142857  0.00000000  3.644315e-04
  0.00000000  0.57142857  0.07142857  3.644315e-04
  0.00000000  0.57142857  0.14285714  3.644315e-04
  0.00000000  0.57142857  0.21428571  3.644315e-04
  0.00000000  0.57142857  0.28571429  3.644315e-04
  0.00000000  0.57142857  0.35714286  3.644315e-04
  0.00000000  0.57142857  0.42857143  3.644315e-04
  0.00000000  0.57142857  0.50000000  3.644315e-04
  0.00000000  0.57142857  0.57142857  3.644315e-04
  0.00000000  0.57142857  0.64285714  3.644315e-04
  0.00000000  0.57142857  0.71428571  3.644315e-04
  0.00000000  0.57142857  0.78571429  3.644315e-04
  0.00000000  0.57142857  0.85714286  3.644315e-04
  0.00000000  0.57142857  0.92857143  3.644315e-04
  0.00000000  0.64285714  0.00000000  3.644315e-04
  0.00000000  0.64285714  0.07142857  3.644315e-04
  0.00000000  0.64285714  0.14285714  3.644315e-04
  0.00000000  0.64285714  0.21428571  3.644315e-04
  0.00000000  0.64285714  0.28571429  3.644315e-04
  0.00000000  0.64285714  0.35714286  3.644315e-04
  0.00000000  0.64285714  0.42857143  3.644315e-04
  0.00000000  0.64285714  0.50000000  3.644315e-04
  0.00000000  0.64285714  0.57142857  3.644315e-04
  0.00000000  0.64285714  0.64285714  3.644315e-04
  0.00000000  0.64285714  0.71428571  3.644315e-04
  0.00000000  0.64285714  0.78571429  3.644315e-04
  0.00000000  0.64285714  0.85714286  3.644315e-04
  0.00000000  0.64285714  0.92857143  3.644315e-04
  0.00000000  0.71428571  0.00000000  3.644315e-04
  0.00000000  0.71428571  0.07142857  3.644315e-04
  0.00000000  0.71428571  0.14285714  3.644315e-04
  0.00000000  0.71428571  0.21428571  3.644315e-04
  0.00000000  0.71428571  0.28571429  3.644315e-04
  0.00000000  0.71428571  0.35714286  3.644315e-04
  0.00000000  0.71428571  0.42857143  3.644315e-04
  0.00000000  0.71428571  0.50000000  3.644315e-04
  0.00000000  0.71428571  0.57142857  3.644315e-04
  0.00000000  0.71428571  0.64285714  3.644315e-04
  0.00000000  0.71428571  0.71428571  3.644315e-04
  0.00000000  0.71428571  0.78571429  3.644315e-04
  0.00000000  0.71428571  0.85714286  3.644315e-04
  0.00000000  0.71428571  0.92857143  3.644315e-04
  0.00000000  0.78571429  0.00000000  3.644315e-04
  0.00000000  0.78571429  0.07142857  3.644315e-04
  0.00000000  0.78571429  0.14285714  3.644315e-04
  0.00000000  0.78571429  0.21428571  3.644315e-04
  0.00000000  0.78571429  0.28571429  3.644315e-04
  0.00000000  0.78571429  0.35714286  3.644315e-04
  0.00000000  0.78571429  0.42857143  3.644315e-04
  0.00000000  0.78571429  0.50000000  3.644315e-04
  0.00000000  0.78571429  0.57142857  3.644315e-04
  0.00000000  0.78571429  0.64285714  3.644315e-04
  0.00000000  0.78571429  0.71428571  3.644315e-04
  0.00000000  0.78571429  0.78571429  3.644315e-04
  0.00000000  0.78571429  0.85714286  3.644315e-04
  0.00000000  0.78571429  0.92857143  3.644315e-04
  0.00000000  0.85714286  0.00000000  3.644315e-04
  0.00000000  0.85714286  0.07142857  3.644315e-04
  0.00000000  0.85714286  0.14285714  3.644315e-04
  0.00000000  0.85714286  0.21428571  3.644315e-04
  0.00000000  0.85714286  0.28571429  3.644315e-04
  0.00000000  0.85714286  0.35714286  3.644315e-04
  0.00000000  0.85714286  0.42857143  3.644315e-04
  0.00000000  0.85714286  0.50000000  3.644315e-04
  0.00000000  0.85714286  0.57142857  3.644315e-04
  0.00000000  0.85714286  0.64285714  3.644315e-04
  0.00000000  0.85714286  0.71428571  3.644315e-04
  0.00000000  0.85714286  0.78571429  3.644315e-04
  0.00000000  0.85714286  0.85714286  3.644315e-04
  0.00000000  0.85714286  0.92857143  3.644315e-04
  0.00000000  0.92857143  0.00000000  3.644315e-04
  0.00000000  0.92857143  0.07142857  3.644315e-04
  0.00000000  0.92857143  0.14285714  3.644315e-04
  0.00000000  0.92857143  0.21428571  3.644315e-04
  0.00000000  0.92857143  0.28571429  3.644315e-04
  0.00000000  0.92857143  0.35714286  3.644315e-04
  0.00000000  0.92857143  0.42857143  3.644315e-04
  0.00000000  0.92857143  0.50000000  3.644315e-04
  0.00000000  0.92857143  0.57142857  3.644315e-04
  0.00000000  0.92857143  0.64285714  3.644315e-04
  0.00000000  0.92857143  0.71428571  3.644315e-04
  0.00000000  0.92857143  0.78571429  3.644315e-04
  0.00000000  0.92857143  0.85714286  3.644315e-04
  0.00000000  0.92857143  0.92857143  3.644315e-04
  0.07142857  0.00000000  0.00000000  3.644315e-04
  0.07142857  0.00000000  0.07142857  3.644315e-04
  0.07142857  0.00000000  0.14285714  3.644315e-04
  0.07142857  0.00000000  0.21428571  3.644315e-04
  0.07142857  0.00000000  0.28571429  3.644315e-04
  0.07142857  0.00000000  0.35714286  3.644315e-04
  0.07142857  0.00000000  0.42857143  3.644315e-04
  0.07142857  0.00000000  0.50000000  3.644315e-04
  0.07142857  0.00000000  0.57142857  3.644315e-04
  0.07142857  0.00000000  0.64285714  3.644315e-04
  0.07142857  0.00000000  0.71428571  3.644315e-04
  0.07142857  0.00000000  0.78571429  3.644315e-04
  0.07142857  0.00000000  0.85714286  3.644315e-04
  0.07142857  0.00000000  0.92857143  3.644315e-04
  0.07142857  0.07142857  0.00000000  3.644315e-04
  0.07142857  0.07142857  0.07142857  3.644315e-04
  0.07142857  0.07142857  0.14285714  3.644315e-04
  0.07142857  0.07142857  0.21428571  3.644315e-04
  0.07142857  0.07142857  0.28571429  3.644315e-04
  0.07142857  0.07142857  0.35714286  3.644315e-04
  0.07142857  0.07142857  0.42857143  3.644315e-04
  0.07142857  0.07142857  0.50000000  3.644315e-04
  0.07142857  0.07142857  0.57142857  3.644315e-04
  0.07142857  0.07142857  0.64285714  3.644315e-04
  0.07142857  0.07142857  0.71428571  3.644315e-04
  0.07142857  0.07142857  0.78571429  3.644315e-04
  0.07142857  0.07142857  0.85714286  3.644315e-04
  0.07142857  0.07142857  0.92857143  3.644315e-04
  0.07142857  0.14285714  0.00000000  3.644315e-04
  0.07142857  0.14285714  0.07142857  3.644315e-04
  0.07142857  0.14285714  0.14285714  3.644315e-04
  0.07142857  0.14285714  0.21428571  3.644315e-04
  0.07142857  0.14285714  0.28571429  3.644315e-04
  0.07142857  0.14285714  0.35714286  3.644315e-04
  0.07142857  0.14285714  0.42857143  3.644315e-04
  0.07142857  0.14285714  0.50000000  3.644315e-04
  0.07142857  0.14285714  0.57142857  3.644315e-04
  0.07142857  0.14285714  0.64285714  3.644315e-04
  0.07142857  0.14285714  0.71428571  3.644315e-04
  0.07142857  0.14285714  0.78571429  3.644315e-04
  0.07142857  0.14285714  0.85714286  3.644315e-04
  0.07142857  0.14285714  0.92857143  3.644315e-04
  0.07142857  0.21428571  0.00000000  3.644315e-04
  0.07142857  0.21428571  0.07142857  3.644315e-04
  0.07142857  0.21428571  0.14285714  3.644315e-04
  0.07142857  0.21428571  0.21428571  3.644315e-04
  0.07142857  0.21428571  0.28571429  3.644315e-04
  0.07142857  0.21428571  0.35714286  3.644315e-04
  0.07142857  0.21428571  0.42857143  3.644315e-04
  0.07142857  0.21428571  0.50000000  3.644315e-04
  0.07142857  0.21428571  0.57142857  3.644315e-04
  0.07142857  0.21428571  0.64285714  3.644315e-04
  0.07142857  0.21428571  0.71428571  3.644315e-04
  0.07142857  0.21428571  0.78571429  3.644315e-04
  0.07142857  0.21428571  0.85714286  3.644315e-04
  0.07142857  0.21428571  0.92857143  3.644315e-04
  0.07142857  0.28571429  0.00000000  3.644315e-04
  0.07142857  0.28571429  0.07142857  3.644315e-04
  0.07142857  0.28571429  0.14285714  3.644315e-04
  0.07142857  0.28571429  0.21428571  3.644315e-04
  0.07142857  0.28571429  0.28571429  3.644315e-04
  0.07142857  0.28571429  0.35714286  3.644315e-04
  0.07142857  0.28571429  0.42857143  3.644315e-04
  0.07142857  0.28571429  0.50000000  3.644315e-04
  0.07142857  0.28571429  0.57142857  3.644315e-04
  0.07142857  0.28571429  0.64285714  3.644315e-04
  0.07142857  0.28571429  0.71428571  3.644315e-04
  0.07142857  0.28571429  0.78571429  3.644315e-04
  0.07142857  0.28571429  0.85714286  3.644315e-04
  0.07142857  0.28571429  0.92857143  3.644315e-04
  0.07142857  0.35714286  0.00000000  3.644315e-04
  0.07142857  0.35714286  0.07142857  3.644315e-04
  0.07142857  0.35714286  0.14285714  3.644315e-04
  0.07142857  0.35714286  0.21428571  3.644315e-04
  0.07142857  0.35714286  0.28571429  3.644315e-04
  0.07142857  0.35714286  0.35714286  3.644315e-04
  0.07142857  0.35714286  0.42857143  3.644315e-04
  0.07142857  0.35714286  0.50000000  3.644315e-04
  0.07142857  0.35714286  0.57142857  3.644315e-04
  0.07142857  0.35714286  0.64285714  3.644315e-04
  0.07142857  0.35714286  0.71428571  3.644315e-04
  0.07142857  0.35714286  0.78571429  3.644315e-04
  0.07142857  0.35714286  0.85714286  3.644315e-04
  0.07142857  0.35714286  0.92857143  3.644315e-04
  0.07142857  0.42857143  0.00000000  3.644315e-04
  0.07142857  0.42857143  0.07142857  3.644315e-04
  0.07142857  0.42857143  0.14285714  3.644315e-04
  0.07142857  0.42857143  0.21428571  3.644315e-04
  0.07142857  0.42857143  0.28571429  3.644315e-04
  0.07142857  0.42857143  0.35714286  3.644315e-04
  0.07142857  0.42857143  0.42857143  3.644315e-04
  0.07142857  0.42857143  0.50000000  3.644315e-04
  0.07142857  0.42857143  0.57142857  3.644315e-04
  0.07142857  0.42857143  0.64285714  3.644315e-04
  0.07142857  0.42857143  0.71428571  3.644315e-04
  0.07142857  0.42857143  0.78571429  3.644315e-04
  0.07142857  0.42857143  0.85714286  3.644315e-04
  0.07142857  0.42857143  0.92857143  3.644315e-04
  0.07142857  0.50000000  0.00000000  3.644315e-04
  0.07142857  0.50000000  0.07142857  3.644315e-04
  0.07142857  0.50000000  0.14285714  3.644315e-04
  0.07142857  0.50000000  0.21428571  3.644315e-04
  0.07142857  0.50000000  0.28571429  3.644315e-04
  0.07142857  0.50000000  0.35714286  3.644315e-04
  0.07142857  0.50000000  0.42857143  3.644315e-04
  0.07142857  0.50000000  0.50000000  3.644315e-04
  0.07142857  0.50000000  0.57142857  3.644315e-04
  0.07142857  0.50000000  0.64285714  3.644315e-04
  0.07142857  0.50000000  0.71428571  3.644315e-04
  0.07142857  0.50000000  0.78571429  3.644315e-04
  0.07142857  0.50000000  0.85714286  3.644315e-04
  0.07142857  0.50000000  0.92857143  3.644315e-04
  0.07142857  0.57142857  0.00000000  3.644315e-04
  0.07142857  0.57142857  0.07142857  3.644315e-04
  0.07142857  0.57142857  0.14285714  3.644315e-04
  0.07142857  0.57142857  0.21428571  3.644315e-04
  0.07142857  0.57142857  0.28571429  3.644315e-04
  0.07142857  0.57142857  0.35714286  3.644315e-04
  0.07142857  0.57142857  0.42857143  3.644315e-04
  0.07142857  0.57142857  0.50000000  3.644315e-04
  0.07142857  0.57142857  0.57142857  3.644315e-04
  0.07142857  0.57142857  0.64285714  3.644315e-04
  0.07142857  0.57142857  0.71428571  3.644315e-04
  0.07142857  0.57142857  0.78571429  3.644315e-04
  0.07142857  0.57142857  0.85714286  3.644315e-04
  0.07142857  0.57142857  0.92857143  3.644315e-04
  0.07142857  0.64285714  0.00000000  3.644315e-04
  0.07142857  0.64285714  0.07142857  3.644315e-04
  0.07142857  0.64285714  0.14285714  3.644315e-04
  0.07142857  0.64285714  0.21428571  3.644315e-04
  0.07142857  0.64285714  0.28571429  3.644315e-04
  0.07142857  0.64285714  0.35714286  3.644315e-04
  0.07142857  0.64285714  0.42857143  3.644315e-04
  0.07142857  0.64285714  0.50000000  3.644315e-04
  0.07142857  0.64285714  0.57142857  3.644315e-04
  0.07142857  0.64285714  0.64285714  3.644315e-04
  0.07142857  0.64285714  0.71428571  3.644315e-04
  0.07142857  0.64285714  0.78571429  3.644315e-04
  0.07142857  0.64285714  0.85714286  3.644315e-04
  0.07142857  0.64285714  0.92857143  3.644315e-04
  0.07142857  0.71428571  0.00000000  3.644315e-04
  0.07142857  0.71428571  0.07142857  3.644315e-04
  0.07142857  0.71428571  0.14285714  3.644315e-04
  0.07142857  0.71428571  0.21428571  3.644315e-04
  0.07142857  0.71428571  0.28571429  3.644315e-04
  0.07142857  0.71428571  0.35714286  3.644315e-04
  0.07142857  0.71428571  0.42857143  3.644315e-04
  0.07142857  0.71428571  0.50000000  3.644315e-04
  0.07142857  0.71428571  0.57142857  3.644315e-04
  0.07142857  0.71428571  0.64285714  3.644315e-04
  0.07142857  0.71428571  0.71428571  3.644315e-04
  0.07142857  0.71428571  0.78571429  3.644315e-04
  0.07142857  0.71428571  0.85714286  3.644315e-04
  0.07142857  0.71428571  0.92857143  3.644315e-04
  0.07142857  0.78571429  0.00000000  3.644315e-04
  0.07142857  0.78571429  0.07142857  3.644315e-04
  0.07142857  0.78571429  0.14285714  3.644315e-04
  0.07142857  0.78571429  0.21428571  3.644315e-04
  0.07142857  0.78571429  0.28571429  3.644315e-04
  0.07142857  0.78571429  0.35714286  3.644315e-04
  0.07142857  0.78571429  0.42857143  3.644315e-04
  0.07142857  0.78571429  0.50000000  3.644315e-04
  0.07142857  0.78571429  0.57142857  3.644315e-04
  0.07142857  0.78571429  0.64285714  3.644315e-04
  0.07142857  0.78571429  0.71428571  3.644315e-04
  0.07142857  0.78571429  0.78571429  3.644315e-04
  0.07142857  0.78571429  0.85714286  3.644315e-04
  0.07142857  0.78571429  0.92857143  3.644315e-04
  0.07142857  0.85714286  0.00000000  3.644315e-04
  0.07142857  0.85714286  0.07142857  3.644315e-04
  0.07142857  0.85714286  0.14285714  3.644315e-04
  0.07142857  0.85714286  0.21428571  3.644315e-04
  0.07142857  0.85714286  0.28571429  3.644315e-04
  0.07142857  0.85714286  0.35714286  3.644315e-04
  0.07142857  0.85714286  0.42857143  3.644315e-04
  0.07142857  0.85714286  0.50000000  3.644315e-04
  0.07142857  0.85714286  0.57142857  3.644315e-04
  0.07142857  0.85714286  0.64285714  3.644315e-04
  0.07142857  0.85714286  0.71428571  3.644315e-04
  0.07142857  0.85714286  0.78571429  3.644315e-04
  0.07142857  0.85714286  0.85714286  3.644315e-04
  0.07142857  0.85714286  0.92857143  3.644315e-04
  0.07142857  0.92857143  0.00000000  3.644315e-04
  0.07142857  0.92857143  0.07142857  3.644315e-04
  0.07142857  0.92857143  0.14285714  3.644315e-04
  0.07142857  0.92857143  0.21428571  3.644315e-04
  0.07142857  0.92857143  0.28571429  3.644315e-04
  0.07142857  0.92857143  0.35714286  3.644315e-04
  0.07142857  0.92857143  0.42857143  3.644315e-04
  0.07142857  0.92857143  0.50000000  3.644315e-04
  0.07142857  0.92857143  0.57142857  3.644315e-04
  0.07142857  0.92857143  0.64285714  3.644315e-04
  0.07142857  0.92857143  0.71428571  3.644315e-04
  0.07142857  0.92857143  0.78571429  3.644315e-04
  0.07142857  0.92857143  0.85714286  3.644315e-04
  0.07142857  0.92857143  0.92857143  3.644315e-04
  0.14285714  0.00000000  0.00000000  3.644315e-04
  0.14285714  0.00000000  0.07142857  3.644315e-04
  0.14285714  0.00000000  0.14285714  3.644315e-04
  0.14285714  0.00000000  0.21428571  3.644315e-04
  0.14285714  0.00000000  0.28571429  3.644315e-04
  0.14285714  0.00000000  0.35714286  3.644315e-04
  0.14285714  0.00000000  0.42857143  3.644315e-04
  0.14285714  0.00000000  0.50000000  3.644315e-04
  0.14285714  0.00000000  0.57142857  3.644315e-04
  0.14285714  0.00000000  0.64285714  3.644315e-04
  0.14285714  0.00000000  0.71428571  3.644315e-04
  0.14285714  0.00000000  0.78571429  3.644315e-04
  0.14285714  0.00000000  0.85714286  3.644315e-04
  0.14285714  0.00000000  0.92857143  3.644315e-04
  0.14285714  0.07142857  0.00000000  3.644315e-04
  0.14285714  0.07142857  0.07142857  3.644315e-04
  0.14285714  0.07142857  0.14285714  3.644315e-04
  0.14285714  0.07142857  0.21428571  3.644315e-04
  0.14285714  0.07142857  0.28571429  3.644315e-04
  0.14285714  0.07142857  0.35714286  3.644315e-04
  0.14285714  0.07142857  0.42857143  3.644315e-04
  0.14285714  0.07142857  0.50000000  3.644315e-04
  0.14285714  0.07142857  0.57142857  3.644315e-04
  0.14285714  0.07142857  0.64285714  3.644315e-04
  0.14285714  0.07142857  0.71428571  3.644315e-04
  0.14285714  0.07142857  0.78571429  3.644315e-04
  0.14285714  0.07142857  0.85714286  3.644315e-04
  0.14285714  0.07142857  0.92857143  3.644315e-04
  0.14285714  0.14285714  0.00000000  3.644315e-04
  0.14285714  0.14285714  0.07142857  3.644315e-04
  0.14285714  0.14285714  0.14285714  3.644315e-04
  0.14285714  0.14285714  0.21428571  3.644315e-04
  0.14285714  0.14285714  0.28571429  3.644315e-04
  0.14285714  0.14285714  0.35714286  3.644315e-04
  0.14285714  0.14285714  0.42857143  3.644315e-04
  0.14285714  0.14285714  0.50000000  3.644315e-04
  0.14285714  0.14285714  0.57142857  3.644315e-04
  0.14285714  0.14285714  0.64285714  3.644315e-04
  0.14285714  0.14285714  0.71428571  3.644315e-04
  0.14285714  0.14285714  0.78571429  3.644315e-04
  0.14285714  0.14285714  0.85714286  3.644315e-04
  0.14285714  0.14285714  0.92857143  3.644315e-04
  0.14285714  0.21428571  0.00000000  3.644315e-04
  0.14285714  0.21428571  0.07142857  3.644315e-04
  0.14285714  0.21428571  0.14285714  3.644315e-04
  0.14285714  0.21428571  0.21428571  3.644315e-04
  0.14285714  0.21428571  0.28571429  3.644315e-04
  0.14285714  0.21428571  0.35714286  3.644315e-04
  0.14285714  0.21428571  0.42857143  3.644315e-04
  0.14285714  0.21428571  0.50000000  3.644315e-04
  0.14285714  0.21428571  0.57142857  3.644315e-04
  0.14285714  0.21428571  0.64285714  3.644315e-04
  0.14285714  0.21428571  0.71428571  3.644315e-04
  0.14285714  0.21428571  0.78571429  3.644315e-04
  0.14285714  0.21428571  0.85714286  3.644315e-04
  0.14285714  0.21428571  0.92857143  3.644315e-04
  0.14285714  0.28571429  0.00000000  3.644315e-04
  0.14285714  0.28571429  0.07142857  3.644315e-04
  0.14285714  0.28571429  0.14285714  3.644315e-04
  0.14285714  0.28571429  0.21428571  3.644315e-04
  0.14285714  0.28571429  0.28571429  3.644315e-04
  0.14285714  0.28571429  0.35714286  3.644315e-04
  0.14285714  0.28571429  0.42857143  3.644315e-04
  0.14285714  0.28571429  0.50000000  3.644315e-04
  0.14285714  0.28571429  0.57142857  3.644315e-04
  0.14285714  0.28571429  0.64285714  3.644315e-04
  0.14285714  0.28571429  0.71428571  3.644315e-04
  0.14285714  0.28571429  0.78571429  3.644315e-04
  0.14285714  0.28571429  0.85714286  3.644315e-04
  0.14285714  0.28571429  0.92857143  3.644315e-04
  0.14285714  0.35714286  0.00000000  3.644315e-04
  0.14285714  0.35714286  0.07142857  3.644315e-04
  0.14285714  0.35714286  0.14285714  3.644315e-04
  0.14285714  0.35714286  0.21428571  3.644315e-04
  0.14285714  0.35714286  0.28571429  3.644315e-04
  0.14285714  0.35714286  0.35714286  3.644315e-04
  0.14285714  0.35714286  0.42857143  3.644315e-04
  0.14285714  0.35714286  0.50000000  3.644315e-04
  0.14285714  0.35714286  0.57142857  3.644315e-04
  0.14285714  0.35714286  0.64285714  3.644315e-04
  0.14285714  0.35714286  0.71428571  3.644315e-04
  0.14285714  0.35714286  0.78571429  3.644315e-04
  0.14285714  0.35714286  0.85714286  3.644315e-04
  0.14285714  0.35714286  0.92857143  3.644315e-04
  0.14285714  0.42857143  0.00000000  3.644315e-04
  0.14285714  0.42857143  0.07142857  3.644315e-04
  0.14285714  0.42857143  0.14285714  3.644315e-04
  0.14285714  0.42857143  0.21428571  3.644315e-04
  0.14285714  0.42857143  0.28571429  3.644315e-04
  0.14285714  0.42857143  0.35714286  3.644315e-04
  0.14285714  0.42857143  0.42857143  3.644315e-04
  0.14285714  0.42857143  0.50000000  3.644315e-04
  0.14285714  0.42857143  0.57142857  3.644315e-04
  0.14285714  0.42857143  0.64285714  3.644315e-04
  0.14285714  0.42857143  0.71428571  3.644315e-04
  0.14285714  0.42857143  0.78571429  3.644315e-04
  0.14285714  0.42857143  0.85714286  3.644315e-04
  0.14285714  0.42857143  0.92857143  3.644315e-04
  0.14285714  0.50000000  0.00000000  3.644315e-04
  0.14285714  0.50000000  0.07142857  3.644315e-04
  0.14285714  0.50000000  0.14285714  3.644315e-04
  0.14285714  0.50000000  0.21428571  3.644315e-04
  0.14285714  0.50000000  0.28571429  3.644315e-04
  0.14285714  0.50000000  0.35714286  3.644315e-04
  0.14285714  0.50000000  0.42857143  3.644315e-04
  0.14285714  0.50000000  0.50000000  3.644315e-04
  0.14285714  0.50000000  0.57142857  3.644315e-04
  0.14285714  0.50000000  0.64285714  3.644315e-04
  0.14285714  0.50000000  0.71428571  3.644315e-04
  0.14285714  0.50000000  0.78571429  3.644315e-04
  0.14285714  0.50000000  0.85714286  3.644315e-04
  0.14285714  0.50000000  0.92857143  3.644315e-04
  0.14285714  0.57142857  0.00000000  3.644315e-04
  0.14285714  0.57142857  0.07142857  3.644315e-04
  0.14285714  0.57142857  0.14285714  3.644315e-04
  0.14285714  0.57142857  0.21428571  3.644315e-04
  0.14285714  0.57142857  0.28571429  3.644315e-04
  0.14285714  0.57142857  0.35714286  3.644315e-04
  0.14285714  0.57142857  0.42857143  3.644315e-04
  0.14285714  0.57142857  0.50000000  3.644315e-04
  0.14285714  0.57142857  0.57142857  3.644315e-04
  0.14285714  0.57142857  0.64285714  3.644315e-04
  0.14285714  0.57142857  0.71428571  3.644315e-04
  0.14285714  0.57142857  0.78571429  3.644315e-04
  0.14285714  0.57142857  0.85714286  3.644315e-04
  0.14285714  0.57142857  0.92857143  3.644315e-04
  0.14285714  0.64285714  0.00000000  3.644315e-04
  0.14285714  0.64285714  0.07142857  3.644315e-04
  0.14285714  0.64285714  0.14285714  3.644315e-04
  0.14285714  0.64285714  0.21428571  3.644315e-04
  0.14285714  0.64285714  0.28571429  3.644315e-04
  0.14285714  0.64285714  0.35714286  3.644315e-04
  0.14285714  0.64285714  0.42857143  3.644315e-04
  0.14285714  0.64285714  0.50000000  3.644315e-04
  0.14285714  0.64285714  0.57142857  3.644315e-04
  0.14285714  0.64285714  0.64285714  3.644315e-04
  0.14285714  0.64285714  0.71428571  3.644315e-04
  0.14285714  0.64285714  0.78571429  3.644315e-04
  0.14285714  0.64285714  0.85714286  3.644315e-04
  0.14285714  0.64285714  0.92857143  3.644315e-04
  0.14285714  0.71428571  0.00000000  3.644315e-04
  0.14285714  0.71428571  0.07142857  3.644315e-04
  0.14285714  0.71428571  0.14285714  3.644315e-04
  0.14285714  0.71428571  0.21428571  3.644315e-04
  0.14285714  0.71428571  0.28571429  3.644315e-04
  0.14285714  0.71428571  0.35714286  3.644315e-04
  0.14285714  0.71428571  0.42857143  3.644315e-04
  0.14285714  0.71428571  0.50000000  3.644315e-04
  0.14285714  0.71428571  0.57142857  3.644315e-04
  0.14285714  0.71428571  0.64285714  3.644315e-04
  0.14285714  0.71428571  0.71428571  3.644315e-04
  0.14285714  0.71428571  0.78571429  3.644315e-04
  0.14285714  0.71428571  0.85714286  3.644315e-04
  0.14285714  0.71428571  0.92857143  3.644315e-04
  0.14285714  0.78571429  0.00000000  3.644315e-04
  0.14285714  0.78571429  0.07142857  3.644315e-04
  0.14285714  0.78571429  0.14285714  3.644315e-04
  0.14285714  0.78571429  0.21428571  3.644315e-04
  0.14285714  0.78571429  0.28571429  3.644315e-04
  0.14285714  0.78571429  0.35714286  3.644315e-04
  0.14285714  0.78571429  0.42857143  3.644315e-04
  0.14285714  0.78571429  0.50000000  3.644315e-04
  0.14285714  0.78571429  0.57142857  3.644315e-04
  0.14285714  0.78571429  0.64285714  3.644315e-04
  0.14285714  0.78571429  0.71428571  3.644315e-04
  0.14285714  0.78571429  0.78571429  3.644315e-04
  0.14285714  0.78571429  0.85714286  3.644315e-04
  0.14285714  0.78571429  0.92857143  3.644315e-04
  0.14285714  0.85714286  0.00000000  3.644315e-04
  0.14285714  0.85714286  0.07142857  3.644315e-04
  0.14285714  0.85714286  0.14285714  3.644315e-04