&inputpp
   outdir = '/nfs/scratch2/trewicedwa/GdN_W/out/'
   prefix = 'GdN_W'
   seedname = 'GdN_W_dw'
   spin_component = 'down'
   write_mmn = .true.
   write_amn = .true.
   write_uHu = .false.
   write_spn = .false.
   write_unk = .true.
/
