&BANDS
 outdir='/nfs/scratch2/trewicedwa/GdN_W/out/',
 prefix='GdN_W',
 filband='GdN_W-S1.bands',
 spin_component=1,
/
