&BANDS
 outdir='/nfs/scratch2/trewicedwa/GdN_W/out/',
 prefix='GdN_B',
 filband='GdN_B-S1.bands',
 spin_component=1,
/
