&BANDS
 outdir='/nfs/scratch/trewicedwa/GdN_W/outB/',
 prefix='GdN_B',
 filband='GdN_B-S2.bands',
 spin_component=2,
/
