&BANDS
 outdir='/nfs/scratch/trewicedwa/GdN_W/outB/',
 prefix='GdN_B',
 filband='GdN_B-S1.bands',
 spin_component=1,
/
