num_bands         =  25
num_wann          =  25

dis_win_min       = -30.0d0
dis_win_max       = 15.0d0
dis_froz_min      = -30.0d0
dis_froz_max      =  40.0d0
dis_num_iter      =  500

num_iter          = 200
dis_mix_ratio = 1.0

# spinors = true
begin projections
Gd: s;p;d;f  # fz3;fz(x2-y2);fx(x2-3y2);fy(3x2-y2);fxz2;fyz2;fxyz
Gd: sp3d
N: px;py;pz;s
end projections

fermi_energy = 13.9717

iprint = 2

#berry = true
#berry_task = morb
#berry_kmesh = 25 25 25

kpath = true
kpath_task = bands
kpath_num_points=100
begin kpoint_path
G  0.0000 0.0000 0.0000   X  0.0000 0.5000 0.5000
X  0.0000 0.5000 0.5000   W  0.2500 0.7500 0.5000
W  0.2500 0.7500 0.5000   K  0.3750 0.7500 0.3750
K  0.3750 0.7500 0.3750   G  0.0000 0.0000 0.0000
G  0.0000 0.0000 0.0000   L  0.5000 0.5000 0.5000
L  0.5000 0.5000 0.5000   U  0.2500 0.6250 0.6250
U  0.2500 0.6250 0.6250   W  0.2500 0.7500 0.5000
W  0.2500 0.7500 0.5000   L  0.5000 0.5000 0.5000
L  0.5000 0.5000 0.5000   K  0.3750 0.7500 0.3750
K  0.3750 0.7500 0.3750   U  0.2500 0.6250 0.6250
U  0.2500 0.6250 0.6250   X  0.0000 0.5000 0.5000
end kpoint_path

# boltz_calc_also_dos = true
# dos = true
# dos_kmesh = 21

#kslice = true
#kslice_task = morb+fermi_lines
#kslice_2dkmesh = 50 50
#kslice_corner = 0.0  0.0  0.0
#kslice_b1 =     0.5 -0.5 -0.5
#kslice_b2 =     0.5  0.5  0.5

begin unit_cell_cart
Ang
2.5874537 2.5874537 0.0000000
0.0000000 2.5874537 2.5874537
2.5874537 0.0000000 2.5874537
end unit_cell_cart

begin atoms_frac
Gd           0.0000000000       0.0000000000       0.0000000000
N            0.5000000000       0.5000000000       0.5000000000
end atoms_frac

mp_grid           = 8 8 8

begin kpoints
  0.00000000  0.00000000  0.00000000  1.953125e-03
  0.00000000  0.00000000  0.12500000  1.953125e-03
  0.00000000  0.00000000  0.25000000  1.953125e-03
  0.00000000  0.00000000  0.37500000  1.953125e-03
  0.00000000  0.00000000  0.50000000  1.953125e-03
  0.00000000  0.00000000  0.62500000  1.953125e-03
  0.00000000  0.00000000  0.75000000  1.953125e-03
  0.00000000  0.00000000  0.87500000  1.953125e-03
  0.00000000  0.12500000  0.00000000  1.953125e-03
  0.00000000  0.12500000  0.12500000  1.953125e-03
  0.00000000  0.12500000  0.25000000  1.953125e-03
  0.00000000  0.12500000  0.37500000  1.953125e-03
  0.00000000  0.12500000  0.50000000  1.953125e-03
  0.00000000  0.12500000  0.62500000  1.953125e-03
  0.00000000  0.12500000  0.75000000  1.953125e-03
  0.00000000  0.12500000  0.87500000  1.953125e-03
  0.00000000  0.25000000  0.00000000  1.953125e-03
  0.00000000  0.25000000  0.12500000  1.953125e-03
  0.00000000  0.25000000  0.25000000  1.953125e-03
  0.00000000  0.25000000  0.37500000  1.953125e-03
  0.00000000  0.25000000  0.50000000  1.953125e-03
  0.00000000  0.25000000  0.62500000  1.953125e-03
  0.00000000  0.25000000  0.75000000  1.953125e-03
  0.00000000  0.25000000  0.87500000  1.953125e-03
  0.00000000  0.37500000  0.00000000  1.953125e-03
  0.00000000  0.37500000  0.12500000  1.953125e-03
  0.00000000  0.37500000  0.25000000  1.953125e-03
  0.00000000  0.37500000  0.37500000  1.953125e-03
  0.00000000  0.37500000  0.50000000  1.953125e-03
  0.00000000  0.37500000  0.62500000  1.953125e-03
  0.00000000  0.37500000  0.75000000  1.953125e-03
  0.00000000  0.37500000  0.87500000  1.953125e-03
  0.00000000  0.50000000  0.00000000  1.953125e-03
  0.00000000  0.50000000  0.12500000  1.953125e-03
  0.00000000  0.50000000  0.25000000  1.953125e-03
  0.00000000  0.50000000  0.37500000  1.953125e-03
  0.00000000  0.50000000  0.50000000  1.953125e-03
  0.00000000  0.50000000  0.62500000  1.953125e-03
  0.00000000  0.50000000  0.75000000  1.953125e-03
  0.00000000  0.50000000  0.87500000  1.953125e-03
  0.00000000  0.62500000  0.00000000  1.953125e-03
  0.00000000  0.62500000  0.12500000  1.953125e-03
  0.00000000  0.62500000  0.25000000  1.953125e-03
  0.00000000  0.62500000  0.37500000  1.953125e-03
  0.00000000  0.62500000  0.50000000  1.953125e-03
  0.00000000  0.62500000  0.62500000  1.953125e-03
  0.00000000  0.62500000  0.75000000  1.953125e-03
  0.00000000  0.62500000  0.87500000  1.953125e-03
  0.00000000  0.75000000  0.00000000  1.953125e-03
  0.00000000  0.75000000  0.12500000  1.953125e-03
  0.00000000  0.75000000  0.25000000  1.953125e-03
  0.00000000  0.75000000  0.37500000  1.953125e-03
  0.00000000  0.75000000  0.50000000  1.953125e-03
  0.00000000  0.75000000  0.62500000  1.953125e-03
  0.00000000  0.75000000  0.75000000  1.953125e-03
  0.00000000  0.75000000  0.87500000  1.953125e-03
  0.00000000  0.87500000  0.00000000  1.953125e-03
  0.00000000  0.87500000  0.12500000  1.953125e-03
  0.00000000  0.87500000  0.25000000  1.953125e-03
  0.00000000  0.87500000  0.37500000  1.953125e-03
  0.00000000  0.87500000  0.50000000  1.953125e-03
  0.00000000  0.87500000  0.62500000  1.953125e-03
  0.00000000  0.87500000  0.75000000  1.953125e-03
  0.00000000  0.87500000  0.87500000  1.953125e-03
  0.12500000  0.00000000  0.00000000  1.953125e-03
  0.12500000  0.00000000  0.12500000  1.953125e-03
  0.12500000  0.00000000  0.25000000  1.953125e-03
  0.12500000  0.00000000  0.37500000  1.953125e-03
  0.12500000  0.00000000  0.50000000  1.953125e-03
  0.12500000  0.00000000  0.62500000  1.953125e-03
  0.12500000  0.00000000  0.75000000  1.953125e-03
  0.12500000  0.00000000  0.87500000  1.953125e-03
  0.12500000  0.12500000  0.00000000  1.953125e-03
  0.12500000  0.12500000  0.12500000  1.953125e-03
  0.12500000  0.12500000  0.25000000  1.953125e-03
  0.12500000  0.12500000  0.37500000  1.953125e-03
  0.12500000  0.12500000  0.50000000  1.953125e-03
  0.12500000  0.12500000  0.62500000  1.953125e-03
  0.12500000  0.12500000  0.75000000  1.953125e-03
  0.12500000  0.12500000  0.87500000  1.953125e-03
  0.12500000  0.25000000  0.00000000  1.953125e-03
  0.12500000  0.25000000  0.12500000  1.953125e-03
  0.12500000  0.25000000  0.25000000  1.953125e-03
  0.12500000  0.25000000  0.37500000  1.953125e-03
  0.12500000  0.25000000  0.50000000  1.953125e-03
  0.12500000  0.25000000  0.62500000  1.953125e-03
  0.12500000  0.25000000  0.75000000  1.953125e-03
  0.12500000  0.25000000  0.87500000  1.953125e-03
  0.12500000  0.37500000  0.00000000  1.953125e-03
  0.12500000  0.37500000  0.12500000  1.953125e-03
  0.12500000  0.37500000  0.25000000  1.953125e-03
  0.12500000  0.37500000  0.37500000  1.953125e-03
  0.12500000  0.37500000  0.50000000  1.953125e-03
  0.12500000  0.37500000  0.62500000  1.953125e-03
  0.12500000  0.37500000  0.75000000  1.953125e-03
  0.12500000  0.37500000  0.87500000  1.953125e-03
  0.12500000  0.50000000  0.00000000  1.953125e-03
  0.12500000  0.50000000  0.12500000  1.953125e-03
  0.12500000  0.50000000  0.25000000  1.953125e-03
  0.12500000  0.50000000  0.37500000  1.953125e-03
  0.12500000  0.50000000  0.50000000  1.953125e-03
  0.12500000  0.50000000  0.62500000  1.953125e-03
  0.12500000  0.50000000  0.75000000  1.953125e-03
  0.12500000  0.50000000  0.87500000  1.953125e-03
  0.12500000  0.62500000  0.00000000  1.953125e-03
  0.12500000  0.62500000  0.12500000  1.953125e-03
  0.12500000  0.62500000  0.25000000  1.953125e-03
  0.12500000  0.62500000  0.37500000  1.953125e-03
  0.12500000  0.62500000  0.50000000  1.953125e-03
  0.12500000  0.62500000  0.62500000  1.953125e-03
  0.12500000  0.62500000  0.75000000  1.953125e-03
  0.12500000  0.62500000  0.87500000  1.953125e-03
  0.12500000  0.75000000  0.00000000  1.953125e-03
  0.12500000  0.75000000  0.12500000  1.953125e-03
  0.12500000  0.75000000  0.25000000  1.953125e-03
  0.12500000  0.75000000  0.37500000  1.953125e-03
  0.12500000  0.75000000  0.50000000  1.953125e-03
  0.12500000  0.75000000  0.62500000  1.953125e-03
  0.12500000  0.75000000  0.75000000  1.953125e-03
  0.12500000  0.75000000  0.87500000  1.953125e-03
  0.12500000  0.87500000  0.00000000  1.953125e-03
  0.12500000  0.87500000  0.12500000  1.953125e-03
  0.12500000  0.87500000  0.25000000  1.953125e-03
  0.12500000  0.87500000  0.37500000  1.953125e-03
  0.12500000  0.87500000  0.50000000  1.953125e-03
  0.12500000  0.87500000  0.62500000  1.953125e-03
  0.12500000  0.87500000  0.75000000  1.953125e-03
  0.12500000  0.87500000  0.87500000  1.953125e-03
  0.25000000  0.00000000  0.00000000  1.953125e-03
  0.25000000  0.00000000  0.12500000  1.953125e-03
  0.25000000  0.00000000  0.25000000  1.953125e-03
  0.25000000  0.00000000  0.37500000  1.953125e-03
  0.25000000  0.00000000  0.50000000  1.953125e-03
  0.25000000  0.00000000  0.62500000  1.953125e-03
  0.25000000  0.00000000  0.75000000  1.953125e-03
  0.25000000  0.00000000  0.87500000  1.953125e-03
  0.25000000  0.12500000  0.00000000  1.953125e-03
  0.25000000  0.12500000  0.12500000  1.953125e-03
  0.25000000  0.12500000  0.25000000  1.953125e-03
  0.25000000  0.12500000  0.37500000  1.953125e-03
  0.25000000  0.12500000  0.50000000  1.953125e-03
  0.25000000  0.12500000  0.62500000  1.953125e-03
  0.25000000  0.12500000  0.75000000  1.953125e-03
  0.25000000  0.12500000  0.87500000  1.953125e-03
  0.25000000  0.25000000  0.00000000  1.953125e-03
  0.25000000  0.25000000  0.12500000  1.953125e-03
  0.25000000  0.25000000  0.25000000  1.953125e-03
  0.25000000  0.25000000  0.37500000  1.953125e-03
  0.25000000  0.25000000  0.50000000  1.953125e-03
  0.25000000  0.25000000  0.62500000  1.953125e-03
  0.25000000  0.25000000  0.75000000  1.953125e-03
  0.25000000  0.25000000  0.87500000  1.953125e-03
  0.25000000  0.37500000  0.00000000  1.953125e-03
  0.25000000  0.37500000  0.12500000  1.953125e-03
  0.25000000  0.37500000  0.25000000  1.953125e-03
  0.25000000  0.37500000  0.37500000  1.953125e-03
  0.25000000  0.37500000  0.50000000  1.953125e-03
  0.25000000  0.37500000  0.62500000  1.953125e-03
  0.25000000  0.37500000  0.75000000  1.953125e-03
  0.25000000  0.37500000  0.87500000  1.953125e-03
  0.25000000  0.50000000  0.00000000  1.953125e-03
  0.25000000  0.50000000  0.12500000  1.953125e-03
  0.25000000  0.50000000  0.25000000  1.953125e-03
  0.25000000  0.50000000  0.37500000  1.953125e-03
  0.25000000  0.50000000  0.50000000  1.953125e-03
  0.25000000  0.50000000  0.62500000  1.953125e-03
  0.25000000  0.50000000  0.75000000  1.953125e-03
  0.25000000  0.50000000  0.87500000  1.953125e-03
  0.25000000  0.62500000  0.00000000  1.953125e-03
  0.25000000  0.62500000  0.12500000  1.953125e-03
  0.25000000  0.62500000  0.25000000  1.953125e-03
  0.25000000  0.62500000  0.37500000  1.953125e-03
  0.25000000  0.62500000  0.50000000  1.953125e-03
  0.25000000  0.62500000  0.62500000  1.953125e-03
  0.25000000  0.62500000  0.75000000  1.953125e-03
  0.25000000  0.62500000  0.87500000  1.953125e-03
  0.25000000  0.75000000  0.00000000  1.953125e-03
  0.25000000  0.75000000  0.12500000  1.953125e-03
  0.25000000  0.75000000  0.25000000  1.953125e-03
  0.25000000  0.75000000  0.37500000  1.953125e-03
  0.25000000  0.75000000  0.50000000  1.953125e-03
  0.25000000  0.75000000  0.62500000  1.953125e-03
  0.25000000  0.75000000  0.75000000  1.953125e-03
  0.25000000  0.75000000  0.87500000  1.953125e-03
  0.25000000  0.87500000  0.00000000  1.953125e-03
  0.25000000  0.87500000  0.12500000  1.953125e-03
  0.25000000  0.87500000  0.25000000  1.953125e-03
  0.25000000  0.87500000  0.37500000  1.953125e-03
  0.25000000  0.87500000  0.50000000  1.953125e-03
  0.25000000  0.87500000  0.62500000  1.953125e-03
  0.25000000  0.87500000  0.75000000  1.953125e-03
  0.25000000  0.87500000  0.87500000  1.953125e-03
  0.37500000  0.00000000  0.00000000  1.953125e-03
  0.37500000  0.00000000  0.12500000  1.953125e-03
  0.37500000  0.00000000  0.25000000  1.953125e-03
  0.37500000  0.00000000  0.37500000  1.953125e-03
  0.37500000  0.00000000  0.50000000  1.953125e-03
  0.37500000  0.00000000  0.62500000  1.953125e-03
  0.37500000  0.00000000  0.75000000  1.953125e-03
  0.37500000  0.00000000  0.87500000  1.953125e-03
  0.37500000  0.12500000  0.00000000  1.953125e-03
  0.37500000  0.12500000  0.12500000  1.953125e-03
  0.37500000  0.12500000  0.25000000  1.953125e-03
  0.37500000  0.12500000  0.37500000  1.953125e-03
  0.37500000  0.12500000  0.50000000  1.953125e-03
  0.37500000  0.12500000  0.62500000  1.953125e-03
  0.37500000  0.12500000  0.75000000  1.953125e-03
  0.37500000  0.12500000  0.87500000  1.953125e-03
  0.37500000  0.25000000  0.00000000  1.953125e-03
  0.37500000  0.25000000  0.12500000  1.953125e-03
  0.37500000  0.25000000  0.25000000  1.953125e-03
  0.37500000  0.25000000  0.37500000  1.953125e-03
  0.37500000  0.25000000  0.50000000  1.953125e-03
  0.37500000  0.25000000  0.62500000  1.953125e-03
  0.37500000  0.25000000  0.75000000  1.953125e-03
  0.37500000  0.25000000  0.87500000  1.953125e-03
  0.37500000  0.37500000  0.00000000  1.953125e-03
  0.37500000  0.37500000  0.12500000  1.953125e-03
  0.37500000  0.37500000  0.25000000  1.953125e-03
  0.37500000  0.37500000  0.37500000  1.953125e-03
  0.37500000  0.37500000  0.50000000  1.953125e-03
  0.37500000  0.37500000  0.62500000  1.953125e-03
  0.37500000  0.37500000  0.75000000  1.953125e-03
  0.37500000  0.37500000  0.87500000  1.953125e-03
  0.37500000  0.50000000  0.00000000  1.953125e-03
  0.37500000  0.50000000  0.12500000  1.953125e-03
  0.37500000  0.50000000  0.25000000  1.953125e-03
  0.37500000  0.50000000  0.37500000  1.953125e-03
  0.37500000  0.50000000  0.50000000  1.953125e-03
  0.37500000  0.50000000  0.62500000  1.953125e-03
  0.37500000  0.50000000  0.75000000  1.953125e-03
  0.37500000  0.50000000  0.87500000  1.953125e-03
  0.37500000  0.62500000  0.00000000  1.953125e-03
  0.37500000  0.62500000  0.12500000  1.953125e-03
  0.37500000  0.62500000  0.25000000  1.953125e-03
  0.37500000  0.62500000  0.37500000  1.953125e-03
  0.37500000  0.62500000  0.50000000  1.953125e-03
  0.37500000  0.62500000  0.62500000  1.953125e-03
  0.37500000  0.62500000  0.75000000  1.953125e-03
  0.37500000  0.62500000  0.87500000  1.953125e-03
  0.37500000  0.75000000  0.00000000  1.953125e-03
  0.37500000  0.75000000  0.12500000  1.953125e-03
  0.37500000  0.75000000  0.25000000  1.953125e-03
  0.37500000  0.75000000  0.37500000  1.953125e-03
  0.37500000  0.75000000  0.50000000  1.953125e-03
  0.37500000  0.75000000  0.62500000  1.953125e-03
  0.37500000  0.75000000  0.75000000  1.953125e-03
  0.37500000  0.75000000  0.87500000  1.953125e-03
  0.37500000  0.87500000  0.00000000  1.953125e-03
  0.37500000  0.87500000  0.12500000  1.953125e-03
  0.37500000  0.87500000  0.25000000  1.953125e-03
  0.37500000  0.87500000  0.37500000  1.953125e-03
  0.37500000  0.87500000  0.50000000  1.953125e-03
  0.37500000  0.87500000  0.62500000  1.953125e-03
  0.37500000  0.87500000  0.75000000  1.953125e-03
  0.37500000  0.87500000  0.87500000  1.953125e-03
  0.50000000  0.00000000  0.00000000  1.953125e-03
  0.50000000  0.00000000  0.12500000  1.953125e-03
  0.50000000  0.00000000  0.25000000  1.953125e-03
  0.50000000  0.00000000  0.37500000  1.953125e-03
  0.50000000  0.00000000  0.50000000  1.953125e-03
  0.50000000  0.00000000  0.62500000  1.953125e-03
  0.50000000  0.00000000  0.75000000  1.953125e-03
  0.50000000  0.00000000  0.87500000  1.953125e-03
  0.50000000  0.12500000  0.00000000  1.953125e-03
  0.50000000  0.12500000  0.12500000  1.953125e-03
  0.50000000  0.12500000  0.25000000  1.953125e-03
  0.50000000  0.12500000  0.37500000  1.953125e-03
  0.50000000  0.12500000  0.50000000  1.953125e-03
  0.50000000  0.12500000  0.62500000  1.953125e-03
  0.50000000  0.12500000  0.75000000  1.953125e-03
  0.50000000  0.12500000  0.87500000  1.953125e-03
  0.50000000  0.25000000  0.00000000  1.953125e-03
  0.50000000  0.25000000  0.12500000  1.953125e-03
  0.50000000  0.25000000  0.25000000  1.953125e-03
  0.50000000  0.25000000  0.37500000  1.953125e-03
  0.50000000  0.25000000  0.50000000  1.953125e-03
  0.50000000  0.25000000  0.62500000  1.953125e-03
  0.50000000  0.25000000  0.75000000  1.953125e-03
  0.50000000  0.25000000  0.87500000  1.953125e-03
  0.50000000  0.37500000  0.00000000  1.953125e-03
  0.50000000  0.37500000  0.12500000  1.953125e-03
  0.50000000  0.37500000  0.25000000  1.953125e-03
  0.50000000  0.37500000  0.37500000  1.953125e-03
  0.50000000  0.37500000  0.50000000  1.953125e-03
  0.50000000  0.37500000  0.62500000  1.953125e-03
  0.50000000  0.37500000  0.75000000  1.953125e-03
  0.50000000  0.37500000  0.87500000  1.953125e-03
  0.50000000  0.50000000  0.00000000  1.953125e-03
  0.50000000  0.50000000  0.12500000  1.953125e-03
  0.50000000  0.50000000  0.25000000  1.953125e-03
  0.50000000  0.50000000  0.37500000  1.953125e-03
  0.50000000  0.50000000  0.50000000  1.953125e-03
  0.50000000  0.50000000  0.62500000  1.953125e-03
  0.50000000  0.50000000  0.75000000  1.953125e-03
  0.50000000  0.50000000  0.87500000  1.953125e-03
  0.50000000  0.62500000  0.00000000  1.953125e-03
  0.50000000  0.62500000  0.12500000  1.953125e-03
  0.50000000  0.62500000  0.25000000  1.953125e-03
  0.50000000  0.62500000  0.37500000  1.953125e-03
  0.50000000  0.62500000  0.50000000  1.953125e-03
  0.50000000  0.62500000  0.62500000  1.953125e-03
  0.50000000  0.62500000  0.75000000  1.953125e-03
  0.50000000  0.62500000  0.87500000  1.953125e-03
  0.50000000  0.75000000  0.00000000  1.953125e-03
  0.50000000  0.75000000  0.12500000  1.953125e-03
  0.50000000  0.75000000  0.25000000  1.953125e-03
  0.50000000  0.75000000  0.37500000  1.953125e-03
  0.50000000  0.75000000  0.50000000  1.953125e-03
  0.50000000  0.75000000  0.62500000  1.953125e-03
  0.50000000  0.75000000  0.75000000  1.953125e-03
  0.50000000  0.75000000  0.87500000  1.953125e-03
  0.50000000  0.87500000  0.00000000  1.953125e-03
  0.50000000  0.87500000  0.12500000  1.953125e-03
  0.50000000  0.87500000  0.25000000  1.953125e-03
  0.50000000  0.87500000  0.37500000  1.953125e-03
  0.50000000  0.87500000  0.50000000  1.953125e-03
  0.50000000  0.87500000  0.62500000  1.953125e-03
  0.50000000  0.87500000  0.75000000  1.953125e-03
  0.50000000  0.87500000  0.87500000  1.953125e-03
  0.62500000  0.00000000  0.00000000  1.953125e-03
  0.62500000  0.00000000  0.12500000  1.953125e-03
  0.62500000  0.00000000  0.25000000  1.953125e-03
  0.62500000  0.00000000  0.37500000  1.953125e-03
  0.62500000  0.00000000  0.50000000  1.953125e-03
  0.62500000  0.00000000  0.62500000  1.953125e-03
  0.62500000  0.00000000  0.75000000  1.953125e-03
  0.62500000  0.00000000  0.87500000  1.953125e-03
  0.62500000  0.12500000  0.00000000  1.953125e-03
  0.62500000  0.12500000  0.12500000  1.953125e-03
  0.62500000  0.12500000  0.25000000  1.953125e-03
  0.62500000  0.12500000  0.37500000  1.953125e-03
  0.62500000  0.12500000  0.50000000  1.953125e-03
  0.62500000  0.12500000  0.62500000  1.953125e-03
  0.62500000  0.12500000  0.75000000  1.953125e-03
  0.62500000  0.12500000  0.87500000  1.953125e-03
  0.62500000  0.25000000  0.00000000  1.953125e-03
  0.62500000  0.25000000  0.12500000  1.953125e-03
  0.62500000  0.25000000  0.25000000  1.953125e-03
  0.62500000  0.25000000  0.37500000  1.953125e-03
  0.62500000  0.25000000  0.50000000  1.953125e-03
  0.62500000  0.25000000  0.62500000  1.953125e-03
  0.62500000  0.25000000  0.75000000  1.953125e-03
  0.62500000  0.25000000  0.87500000  1.953125e-03
  0.62500000  0.37500000  0.00000000  1.953125e-03
  0.62500000  0.37500000  0.12500000  1.953125e-03
  0.62500000  0.37500000  0.25000000  1.953125e-03
  0.62500000  0.37500000  0.37500000  1.953125e-03
  0.62500000  0.37500000  0.50000000  1.953125e-03
  0.62500000  0.37500000  0.62500000  1.953125e-03
  0.62500000  0.37500000  0.75000000  1.953125e-03
  0.62500000  0.37500000  0.87500000  1.953125e-03
  0.62500000  0.50000000  0.00000000  1.953125e-03
  0.62500000  0.50000000  0.12500000  1.953125e-03
  0.62500000  0.50000000  0.25000000  1.953125e-03
  0.62500000  0.50000000  0.37500000  1.953125e-03
  0.62500000  0.50000000  0.50000000  1.953125e-03
  0.62500000  0.50000000  0.62500000  1.953125e-03
  0.62500000  0.50000000  0.75000000  1.953125e-03
  0.62500000  0.50000000  0.87500000  1.953125e-03
  0.62500000  0.62500000  0.00000000  1.953125e-03
  0.62500000  0.62500000  0.12500000  1.953125e-03
  0.62500000  0.62500000  0.25000000  1.953125e-03
  0.62500000  0.62500000  0.37500000  1.953125e-03
  0.62500000  0.62500000  0.50000000  1.953125e-03
  0.62500000  0.62500000  0.62500000  1.953125e-03
  0.62500000  0.62500000  0.75000000  1.953125e-03
  0.62500000  0.62500000  0.87500000  1.953125e-03
  0.62500000  0.75000000  0.00000000  1.953125e-03
  0.62500000  0.75000000  0.12500000  1.953125e-03
  0.62500000  0.75000000  0.25000000  1.953125e-03
  0.62500000  0.75000000  0.37500000  1.953125e-03
  0.62500000  0.75000000  0.50000000  1.953125e-03
  0.62500000  0.75000000  0.62500000  1.953125e-03
  0.62500000  0.75000000  0.75000000  1.953125e-03
  0.62500000  0.75000000  0.87500000  1.953125e-03
  0.62500000  0.87500000  0.00000000  1.953125e-03
  0.62500000  0.87500000  0.12500000  1.953125e-03
  0.62500000  0.87500000  0.25000000  1.953125e-03
  0.62500000  0.87500000  0.37500000  1.953125e-03
  0.62500000  0.87500000  0.50000000  1.953125e-03
  0.62500000  0.87500000  0.62500000  1.953125e-03
  0.62500000  0.87500000  0.75000000  1.953125e-03
  0.62500000  0.87500000  0.87500000  1.953125e-03
  0.75000000  0.00000000  0.00000000  1.953125e-03
  0.75000000  0.00000000  0.12500000  1.953125e-03
  0.75000000  0.00000000  0.25000000  1.953125e-03
  0.75000000  0.00000000  0.37500000  1.953125e-03
  0.75000000  0.00000000  0.50000000  1.953125e-03
  0.75000000  0.00000000  0.62500000  1.953125e-03
  0.75000000  0.00000000  0.75000000  1.953125e-03
  0.75000000  0.00000000  0.87500000  1.953125e-03
  0.75000000  0.12500000  0.00000000  1.953125e-03
  0.75000000  0.12500000  0.12500000  1.953125e-03
  0.75000000  0.12500000  0.25000000  1.953125e-03
  0.75000000  0.12500000  0.37500000  1.953125e-03
  0.75000000  0.12500000  0.50000000  1.953125e-03
  0.75000000  0.12500000  0.62500000  1.953125e-03
  0.75000000  0.12500000  0.75000000  1.953125e-03
  0.75000000  0.12500000  0.87500000  1.953125e-03
  0.75000000  0.25000000  0.00000000  1.953125e-03
  0.75000000  0.25000000  0.12500000  1.953125e-03
  0.75000000  0.25000000  0.25000000  1.953125e-03
  0.75000000  0.25000000  0.37500000  1.953125e-03
  0.75000000  0.25000000  0.50000000  1.953125e-03
  0.75000000  0.25000000  0.62500000  1.953125e-03
  0.75000000  0.25000000  0.75000000  1.953125e-03
  0.75000000  0.25000000  0.87500000  1.953125e-03
  0.75000000  0.37500000  0.00000000  1.953125e-03
  0.75000000  0.37500000  0.12500000  1.953125e-03
  0.75000000  0.37500000  0.25000000  1.953125e-03
  0.75000000  0.37500000  0.37500000  1.953125e-03
  0.75000000  0.37500000  0.50000000  1.953125e-03
  0.75000000  0.37500000  0.62500000  1.953125e-03
  0.75000000  0.37500000  0.75000000  1.953125e-03
  0.75000000  0.37500000  0.87500000  1.953125e-03
  0.75000000  0.50000000  0.00000000  1.953125e-03
  0.75000000  0.50000000  0.12500000  1.953125e-03
  0.75000000  0.50000000  0.25000000  1.953125e-03
  0.75000000  0.50000000  0.37500000  1.953125e-03
  0.75000000  0.50000000  0.50000000  1.953125e-03
  0.75000000  0.50000000  0.62500000  1.953125e-03
  0.75000000  0.50000000  0.75000000  1.953125e-03
  0.75000000  0.50000000  0.87500000  1.953125e-03
  0.75000000  0.62500000  0.00000000  1.953125e-03
  0.75000000  0.62500000  0.12500000  1.953125e-03
  0.75000000  0.62500000  0.25000000  1.953125e-03
  0.75000000  0.62500000  0.37500000  1.953125e-03
  0.75000000  0.62500000  0.50000000  1.953125e-03
  0.75000000  0.62500000  0.62500000  1.953125e-03
  0.75000000  0.62500000  0.75000000  1.953125e-03
  0.75000000  0.62500000  0.87500000  1.953125e-03
  0.75000000  0.75000000  0.00000000  1.953125e-03
  0.75000000  0.75000000  0.12500000  1.953125e-03
  0.75000000  0.75000000  0.25000000  1.953125e-03
  0.75000000  0.75000000  0.37500000  1.953125e-03
  0.75000000  0.75000000  0.50000000  1.953125e-03
  0.75000000  0.75000000  0.62500000  1.953125e-03
  0.75000000  0.75000000  0.75000000  1.953125e-03
  0.75000000  0.75000000  0.87500000  1.953125e-03
  0.75000000  0.87500000  0.00000000  1.953125e-03
  0.75000000  0.87500000  0.12500000  1.953125e-03
  0.75000000  0.87500000  0.25000000  1.953125e-03
  0.75000000  0.87500000  0.37500000  1.953125e-03
  0.75000000  0.87500000  0.50000000  1.953125e-03
  0.75000000  0.87500000  0.62500000  1.953125e-03
  0.75000000  0.87500000  0.75000000  1.953125e-03
  0.75000000  0.87500000  0.87500000  1.953125e-03
  0.87500000  0.00000000  0.00000000  1.953125e-03
  0.87500000  0.00000000  0.12500000  1.953125e-03
  0.87500000  0.00000000  0.25000000  1.953125e-03
  0.87500000  0.00000000  0.37500000  1.953125e-03
  0.87500000  0.00000000  0.50000000  1.953125e-03
  0.87500000  0.00000000  0.62500000  1.953125e-03
  0.87500000  0.00000000  0.75000000  1.953125e-03
  0.87500000  0.00000000  0.87500000  1.953125e-03
  0.87500000  0.12500000  0.00000000  1.953125e-03
  0.87500000  0.12500000  0.12500000  1.953125e-03
  0.87500000  0.12500000  0.25000000  1.953125e-03
  0.87500000  0.12500000  0.37500000  1.953125e-03
  0.87500000  0.12500000  0.50000000  1.953125e-03
  0.87500000  0.12500000  0.62500000  1.953125e-03
  0.87500000  0.12500000  0.75000000  1.953125e-03
  0.87500000  0.12500000  0.87500000  1.953125e-03
  0.87500000  0.25000000  0.00000000  1.953125e-03
  0.87500000  0.25000000  0.12500000  1.953125e-03
  0.87500000  0.25000000  0.25000000  1.953125e-03
  0.87500000  0.25000000  0.37500000  1.953125e-03
  0.87500000  0.25000000  0.50000000  1.953125e-03
  0.87500000  0.25000000  0.62500000  1.953125e-03
  0.87500000  0.25000000  0.75000000  1.953125e-03
  0.87500000  0.25000000  0.87500000  1.953125e-03
  0.87500000  0.37500000  0.00000000  1.953125e-03
  0.87500000  0.37500000  0.12500000  1.953125e-03
  0.87500000  0.37500000  0.25000000  1.953125e-03
  0.87500000  0.37500000  0.37500000  1.953125e-03
  0.87500000  0.37500000  0.50000000  1.953125e-03
  0.87500000  0.37500000  0.62500000  1.953125e-03
  0.87500000  0.37500000  0.75000000  1.953125e-03
  0.87500000  0.37500000  0.87500000  1.953125e-03
  0.87500000  0.50000000  0.00000000  1.953125e-03
  0.87500000  0.50000000  0.12500000  1.953125e-03
  0.87500000  0.50000000  0.25000000  1.953125e-03
  0.87500000  0.50000000  0.37500000  1.953125e-03
  0.87500000  0.50000000  0.50000000  1.953125e-03
  0.87500000  0.50000000  0.62500000  1.953125e-03
  0.87500000  0.50000000  0.75000000  1.953125e-03
  0.87500000  0.50000000  0.87500000  1.953125e-03
  0.87500000  0.62500000  0.00000000  1.953125e-03
  0.87500000  0.62500000  0.12500000  1.953125e-03
  0.87500000  0.62500000  0.25000000  1.953125e-03
  0.87500000  0.62500000  0.37500000  1.953125e-03
  0.87500000  0.62500000  0.50000000  1.953125e-03
  0.87500000  0.62500000  0.62500000  1.953125e-03
  0.87500000  0.62500000  0.75000000  1.953125e-03
  0.87500000  0.62500000  0.87500000  1.953125e-03
  0.87500000  0.75000000  0.00000000  1.953125e-03
  0.87500000  0.75000000  0.12500000  1.953125e-03
  0.87500000  0.75000000  0.25000000  1.953125e-03
  0.87500000  0.75000000  0.37500000  1.953125e-03
  0.87500000  0.75000000  0.50000000  1.953125e-03
  0.87500000  0.75000000  0.62500000  1.953125e-03
  0.87500000  0.75000000  0.75000000  1.953125e-03
  0.87500000  0.75000000  0.87500000  1.953125e-03
  0.87500000  0.87500000  0.00000000  1.953125e-03
  0.87500000  0.87500000  0.12500000  1.953125e-03
  0.87500000  0.87500000  0.25000000  1.953125e-03
  0.87500000  0.87500000  0.37500000  1.953125e-03
  0.87500000  0.87500000  0.50000000  1.953125e-03
  0.87500000  0.87500000  0.62500000  1.953125e-03
  0.87500000  0.87500000  0.75000000  1.953125e-03
  0.87500000  0.87500000  0.87500000  1.953125e-03
end kpoints
