&inputpp
   outdir = '/nfs/scratch2/trewicedwa/GdN_M/out/'
   prefix = 'GdN_M'
   seedname = 'GdN_M_up'
   spin_component = 'up'
   write_mmn = .true.
   write_amn = .true.
   write_uHu = .true.
   write_spn = .false.
   write_unk = .false.
/
