&CONTROL
  calculation = 'vc-relax'
  title = 'SmN_vc-relax'
  verbosity = 'high'
  restart_mode = 'from_scratch'
  etot_conv_thr =   8.0000000000d-05
  forc_conv_thr =   1.0000000000d-04
  outdir = '/nfs/scratch2/trewicedwa/SmN_M/out/'
  prefix = 'SmN'
  pseudo_dir = '/nfs/home/trewicedwa/orbitalMagnetism/pseudo/'
  disk_io = 'low'
  tprnfor = .true.
  tstress = .true.
/
&SYSTEM
  degauss =   1.4699723600d-02
  ecutrho =   320
  ecutwfc =   80
  ibrav = 10
  A = 5.035
  B = 5.035
  C = 5.036
  nat = 2
  nosym = .false.
  nspin = 2
  ntyp = 2
  nbnd = 26 ! num Kohn-Sham states
  occupations = 'smearing'
  starting_magnetization(1) =   1.0
  starting_magnetization(2) =   0.0
  lda_plus_u=.true.
  lda_plus_u_kind=0
  Hubbard_U(1) = 6.76
  Hubbard_U_back(1) = 4.3
/
&ELECTRONS
  conv_thr =   1.6000000000d-08
  electron_maxstep = 1000
  mixing_beta =   2.0000000000d-01
  mixing_ndim=8
/
&IONS
/
&CELL
/
ATOMIC_SPECIES
Gd     157.25 Gd.GGA-PBE-paw-v1.0.UPF
N      14.0067 N.pbe-kjpaw.UPF
ATOMIC_POSITIONS (crystal)
Gd           0.0000000000       0.0000000000       0.0000000000
N            0.5000000000       0.5000000000       0.5000000000
K_POINTS automatic
14 14 14 0 0 0
