&inputpp
   outdir = '/nfs/scratch2/trewicedwa/SmN_M/out/'
   prefix = 'SmN_M'
   seedname = 'SmN_M_up'
   spin_component = 'up'
   write_mmn = .true.
   write_amn = .true.
   write_uHu = .false.
   write_spn = .false.
   write_unk = .false.
/
