&CONTROL
  calculation = 'bands'
  title = 'SmN_M_bands'
  verbosity = 'high'
  restart_mode = 'from_scratch'
  etot_conv_thr =   8.0000000000d-05
  forc_conv_thr =   1.0000000000d-04
  outdir = '/nfs/scratch2/trewicedwa/SmN_M/out/'
  prefix = 'SmN_M'
  pseudo_dir = '/nfs/home/trewicedwa/orbitalMagnetism/pseudo/'
  disk_io = 'low'
  tprnfor = .true.
  tstress = .true.
/
&SYSTEM
  degauss =   1.4699723600d-02
  ecutrho =   320
  ecutwfc =   80
  ibrav = 0
  nat = 2
  nosym = .true.
  nspin = 2
  ntyp = 2
  nbnd = 25 ! num Kohn-Sham states
  occupations = 'smearing'
  starting_magnetization(1) =   1.0
  starting_magnetization(2) =   0.0
  lda_plus_u=.true.
  lda_plus_u_kind=0
  Hubbard_U(1) = 6.76
  Hubbard_U_back(1) = 4.3
/
&ELECTRONS
  conv_thr =   1.6000000000d-09
  electron_maxstep = 1000
  mixing_beta =   2.0000000000d-01
  mixing_ndim=8
/
&IONS
/
&CELL
/
CELL_PARAMETERS angstrom
  2.743036057  0.000000000  2.792349265
  2.743036057  2.743036057  0.000000000
  0.000000000  2.743036057  2.792349265
ATOMIC_SPECIES
Sm     150.36 Sm.GGA-PBE-paw-v1.0.UPF
N      14.0067 N.pbe-kjpaw.UPF
ATOMIC_POSITIONS (crystal)
Sm           0.0000000000       0.0000000000       0.0000000000
N            0.5000000000       0.5000000000       0.5000000000
K_POINTS crystal_b  ! FCC GXWKGLUWLK|UX
12  ! total points = 647
0.0000 0.0000 0.0000  100  ! G
0.0000 0.5000 0.5000   50  ! X
0.2500 0.7500 0.5000   36  ! W
0.3750 0.7500 0.3750  107  ! K
0.0000 0.0000 0.0000   87  ! G
0.5000 0.5000 0.5000   62  ! L
0.2500 0.6250 0.6250   36  ! U
0.2500 0.7500 0.5000   71  ! W
0.5000 0.5000 0.5000   62  ! L
0.3750 0.7500 0.3750    0  ! K
0.2500 0.6250 0.6250   36  ! U
0.0000 0.5000 0.5000    0  ! X

