&BANDS
 outdir='/nfs/scratch2/trewicedwa/SmN_M/out/',
 prefix='SmN_M',
 filband='SmN_M-S2.bands',
 spin_component=2,
/
