num_bands         =  25
num_wann          =  25

dis_win_min       = -20.0d0
dis_win_max       = 40.0d0
dis_froz_min      = -20.0d0
dis_froz_max      =  40.0d0
dis_num_iter      =  500

num_iter          = 200
dis_mix_ratio = 1.0

# spinors = true
begin projections
Sm: s;p;d;f  # fz3;fz(x2-y2);fx(x2-3y2);fy(3x2-y2);fxz2;fyz2;fxyz
Sm: sp3d
N: px;py;pz;s
end projections

fermi_energy = 9.8114

iprint = 2

#berry = true
#berry_task = morb
#berry_kmesh = 25 25 25

kpath = true
kpath_task = bands
kpath_num_points=100 # numpts for the first line
begin kpoint_path
G  0.0000 0.0000 0.0000   X  0.0000 0.5000 0.5000
X  0.0000 0.5000 0.5000   W  0.2500 0.7500 0.5000
W  0.2500 0.7500 0.5000   K  0.3750 0.7500 0.3750
K  0.3750 0.7500 0.3750   G  0.0000 0.0000 0.0000
G  0.0000 0.0000 0.0000   L  0.5000 0.5000 0.5000
L  0.5000 0.5000 0.5000   U  0.2500 0.6250 0.6250
U  0.2500 0.6250 0.6250   W  0.2500 0.7500 0.5000
W  0.2500 0.7500 0.5000   L  0.5000 0.5000 0.5000
L  0.5000 0.5000 0.5000   K  0.3750 0.7500 0.3750
U  0.2500 0.6250 0.6250   X  0.0000 0.5000 0.5000
end kpoint_path

boltz_calc_also_dos = true
dos = true
dos_kmesh = 21

#kslice = true
#kslice_task = morb+fermi_lines
#kslice_2dkmesh = 50 50
#kslice_corner = 0.0  0.0  0.0
#kslice_b1 =     0.5 -0.5 -0.5
#kslice_b2 =     0.5  0.5  0.5

begin unit_cell_cart
Ang
  2.743036057  0.000000000  2.792349265
  2.743036057  2.743036057  0.000000000
  0.000000000  2.743036057  2.792349265
end unit_cell_cart

begin atoms_frac
Sm           0.0000000000       0.0000000000       0.0000000000
N            0.5000000000       0.5000000000       0.5000000000
end atoms_frac

mp_grid           = 14 14 14

begin kpoints
  0.00000000  0.00000000  0.00000000
  0.00000000  0.00000000  0.07142857
  0.00000000  0.00000000  0.14285714
  0.00000000  0.00000000  0.21428571
  0.00000000  0.00000000  0.28571429
  0.00000000  0.00000000  0.35714286
  0.00000000  0.00000000  0.42857143
  0.00000000  0.00000000  0.50000000
  0.00000000  0.00000000  0.57142857
  0.00000000  0.00000000  0.64285714
  0.00000000  0.00000000  0.71428571
  0.00000000  0.00000000  0.78571429
  0.00000000  0.00000000  0.85714286
  0.00000000  0.00000000  0.92857143
  0.00000000  0.07142857  0.00000000
  0.00000000  0.07142857  0.07142857
  0.00000000  0.07142857  0.14285714
  0.00000000  0.07142857  0.21428571
  0.00000000  0.07142857  0.28571429
  0.00000000  0.07142857  0.35714286
  0.00000000  0.07142857  0.42857143
  0.00000000  0.07142857  0.50000000
  0.00000000  0.07142857  0.57142857
  0.00000000  0.07142857  0.64285714
  0.00000000  0.07142857  0.71428571
  0.00000000  0.07142857  0.78571429
  0.00000000  0.07142857  0.85714286
  0.00000000  0.07142857  0.92857143
  0.00000000  0.14285714  0.00000000
  0.00000000  0.14285714  0.07142857
  0.00000000  0.14285714  0.14285714
  0.00000000  0.14285714  0.21428571
  0.00000000  0.14285714  0.28571429
  0.00000000  0.14285714  0.35714286
  0.00000000  0.14285714  0.42857143
  0.00000000  0.14285714  0.50000000
  0.00000000  0.14285714  0.57142857
  0.00000000  0.14285714  0.64285714
  0.00000000  0.14285714  0.71428571
  0.00000000  0.14285714  0.78571429
  0.00000000  0.14285714  0.85714286
  0.00000000  0.14285714  0.92857143
  0.00000000  0.21428571  0.00000000
  0.00000000  0.21428571  0.07142857
  0.00000000  0.21428571  0.14285714
  0.00000000  0.21428571  0.21428571
  0.00000000  0.21428571  0.28571429
  0.00000000  0.21428571  0.35714286
  0.00000000  0.21428571  0.42857143
  0.00000000  0.21428571  0.50000000
  0.00000000  0.21428571  0.57142857
  0.00000000  0.21428571  0.64285714
  0.00000000  0.21428571  0.71428571
  0.00000000  0.21428571  0.78571429
  0.00000000  0.21428571  0.85714286
  0.00000000  0.21428571  0.92857143
  0.00000000  0.28571429  0.00000000
  0.00000000  0.28571429  0.07142857
  0.00000000  0.28571429  0.14285714
  0.00000000  0.28571429  0.21428571
  0.00000000  0.28571429  0.28571429
  0.00000000  0.28571429  0.35714286
  0.00000000  0.28571429  0.42857143
  0.00000000  0.28571429  0.50000000
  0.00000000  0.28571429  0.57142857
  0.00000000  0.28571429  0.64285714
  0.00000000  0.28571429  0.71428571
  0.00000000  0.28571429  0.78571429
  0.00000000  0.28571429  0.85714286
  0.00000000  0.28571429  0.92857143
  0.00000000  0.35714286  0.00000000
  0.00000000  0.35714286  0.07142857
  0.00000000  0.35714286  0.14285714
  0.00000000  0.35714286  0.21428571
  0.00000000  0.35714286  0.28571429
  0.00000000  0.35714286  0.35714286
  0.00000000  0.35714286  0.42857143
  0.00000000  0.35714286  0.50000000
  0.00000000  0.35714286  0.57142857
  0.00000000  0.35714286  0.64285714
  0.00000000  0.35714286  0.71428571
  0.00000000  0.35714286  0.78571429
  0.00000000  0.35714286  0.85714286
  0.00000000  0.35714286  0.92857143
  0.00000000  0.42857143  0.00000000
  0.00000000  0.42857143  0.07142857
  0.00000000  0.42857143  0.14285714
  0.00000000  0.42857143  0.21428571
  0.00000000  0.42857143  0.28571429
  0.00000000  0.42857143  0.35714286
  0.00000000  0.42857143  0.42857143
  0.00000000  0.42857143  0.50000000
  0.00000000  0.42857143  0.57142857
  0.00000000  0.42857143  0.64285714
  0.00000000  0.42857143  0.71428571
  0.00000000  0.42857143  0.78571429
  0.00000000  0.42857143  0.85714286
  0.00000000  0.42857143  0.92857143
  0.00000000  0.50000000  0.00000000
  0.00000000  0.50000000  0.07142857
  0.00000000  0.50000000  0.14285714
  0.00000000  0.50000000  0.21428571
  0.00000000  0.50000000  0.28571429
  0.00000000  0.50000000  0.35714286
  0.00000000  0.50000000  0.42857143
  0.00000000  0.50000000  0.50000000
  0.00000000  0.50000000  0.57142857
  0.00000000  0.50000000  0.64285714
  0.00000000  0.50000000  0.71428571
  0.00000000  0.50000000  0.78571429
  0.00000000  0.50000000  0.85714286
  0.00000000  0.50000000  0.92857143
  0.00000000  0.57142857  0.00000000
  0.00000000  0.57142857  0.07142857
  0.00000000  0.57142857  0.14285714
  0.00000000  0.57142857  0.21428571
  0.00000000  0.57142857  0.28571429
  0.00000000  0.57142857  0.35714286
  0.00000000  0.57142857  0.42857143
  0.00000000  0.57142857  0.50000000
  0.00000000  0.57142857  0.57142857
  0.00000000  0.57142857  0.64285714
  0.00000000  0.57142857  0.71428571
  0.00000000  0.57142857  0.78571429
  0.00000000  0.57142857  0.85714286
  0.00000000  0.57142857  0.92857143
  0.00000000  0.64285714  0.00000000
  0.00000000  0.64285714  0.07142857
  0.00000000  0.64285714  0.14285714
  0.00000000  0.64285714  0.21428571
  0.00000000  0.64285714  0.28571429
  0.00000000  0.64285714  0.35714286
  0.00000000  0.64285714  0.42857143
  0.00000000  0.64285714  0.50000000
  0.00000000  0.64285714  0.57142857
  0.00000000  0.64285714  0.64285714
  0.00000000  0.64285714  0.71428571
  0.00000000  0.64285714  0.78571429
  0.00000000  0.64285714  0.85714286
  0.00000000  0.64285714  0.92857143
  0.00000000  0.71428571  0.00000000
  0.00000000  0.71428571  0.07142857
  0.00000000  0.71428571  0.14285714
  0.00000000  0.71428571  0.21428571
  0.00000000  0.71428571  0.28571429
  0.00000000  0.71428571  0.35714286
  0.00000000  0.71428571  0.42857143
  0.00000000  0.71428571  0.50000000
  0.00000000  0.71428571  0.57142857
  0.00000000  0.71428571  0.64285714
  0.00000000  0.71428571  0.71428571
  0.00000000  0.71428571  0.78571429
  0.00000000  0.71428571  0.85714286
  0.00000000  0.71428571  0.92857143
  0.00000000  0.78571429  0.00000000
  0.00000000  0.78571429  0.07142857
  0.00000000  0.78571429  0.14285714
  0.00000000  0.78571429  0.21428571
  0.00000000  0.78571429  0.28571429
  0.00000000  0.78571429  0.35714286
  0.00000000  0.78571429  0.42857143
  0.00000000  0.78571429  0.50000000
  0.00000000  0.78571429  0.57142857
  0.00000000  0.78571429  0.64285714
  0.00000000  0.78571429  0.71428571
  0.00000000  0.78571429  0.78571429
  0.00000000  0.78571429  0.85714286
  0.00000000  0.78571429  0.92857143
  0.00000000  0.85714286  0.00000000
  0.00000000  0.85714286  0.07142857
  0.00000000  0.85714286  0.14285714
  0.00000000  0.85714286  0.21428571
  0.00000000  0.85714286  0.28571429
  0.00000000  0.85714286  0.35714286
  0.00000000  0.85714286  0.42857143
  0.00000000  0.85714286  0.50000000
  0.00000000  0.85714286  0.57142857
  0.00000000  0.85714286  0.64285714
  0.00000000  0.85714286  0.71428571
  0.00000000  0.85714286  0.78571429
  0.00000000  0.85714286  0.85714286
  0.00000000  0.85714286  0.92857143
  0.00000000  0.92857143  0.00000000
  0.00000000  0.92857143  0.07142857
  0.00000000  0.92857143  0.14285714
  0.00000000  0.92857143  0.21428571
  0.00000000  0.92857143  0.28571429
  0.00000000  0.92857143  0.35714286
  0.00000000  0.92857143  0.42857143
  0.00000000  0.92857143  0.50000000
  0.00000000  0.92857143  0.57142857
  0.00000000  0.92857143  0.64285714
  0.00000000  0.92857143  0.71428571
  0.00000000  0.92857143  0.78571429
  0.00000000  0.92857143  0.85714286
  0.00000000  0.92857143  0.92857143
  0.07142857  0.00000000  0.00000000
  0.07142857  0.00000000  0.07142857
  0.07142857  0.00000000  0.14285714
  0.07142857  0.00000000  0.21428571
  0.07142857  0.00000000  0.28571429
  0.07142857  0.00000000  0.35714286
  0.07142857  0.00000000  0.42857143
  0.07142857  0.00000000  0.50000000
  0.07142857  0.00000000  0.57142857
  0.07142857  0.00000000  0.64285714
  0.07142857  0.00000000  0.71428571
  0.07142857  0.00000000  0.78571429
  0.07142857  0.00000000  0.85714286
  0.07142857  0.00000000  0.92857143
  0.07142857  0.07142857  0.00000000
  0.07142857  0.07142857  0.07142857
  0.07142857  0.07142857  0.14285714
  0.07142857  0.07142857  0.21428571
  0.07142857  0.07142857  0.28571429
  0.07142857  0.07142857  0.35714286
  0.07142857  0.07142857  0.42857143
  0.07142857  0.07142857  0.50000000
  0.07142857  0.07142857  0.57142857
  0.07142857  0.07142857  0.64285714
  0.07142857  0.07142857  0.71428571
  0.07142857  0.07142857  0.78571429
  0.07142857  0.07142857  0.85714286
  0.07142857  0.07142857  0.92857143
  0.07142857  0.14285714  0.00000000
  0.07142857  0.14285714  0.07142857
  0.07142857  0.14285714  0.14285714
  0.07142857  0.14285714  0.21428571
  0.07142857  0.14285714  0.28571429
  0.07142857  0.14285714  0.35714286
  0.07142857  0.14285714  0.42857143
  0.07142857  0.14285714  0.50000000
  0.07142857  0.14285714  0.57142857
  0.07142857  0.14285714  0.64285714
  0.07142857  0.14285714  0.71428571
  0.07142857  0.14285714  0.78571429
  0.07142857  0.14285714  0.85714286
  0.07142857  0.14285714  0.92857143
  0.07142857  0.21428571  0.00000000
  0.07142857  0.21428571  0.07142857
  0.07142857  0.21428571  0.14285714
  0.07142857  0.21428571  0.21428571
  0.07142857  0.21428571  0.28571429
  0.07142857  0.21428571  0.35714286
  0.07142857  0.21428571  0.42857143
  0.07142857  0.21428571  0.50000000
  0.07142857  0.21428571  0.57142857
  0.07142857  0.21428571  0.64285714
  0.07142857  0.21428571  0.71428571
  0.07142857  0.21428571  0.78571429
  0.07142857  0.21428571  0.85714286
  0.07142857  0.21428571  0.92857143
  0.07142857  0.28571429  0.00000000
  0.07142857  0.28571429  0.07142857
  0.07142857  0.28571429  0.14285714
  0.07142857  0.28571429  0.21428571
  0.07142857  0.28571429  0.28571429
  0.07142857  0.28571429  0.35714286
  0.07142857  0.28571429  0.42857143
  0.07142857  0.28571429  0.50000000
  0.07142857  0.28571429  0.57142857
  0.07142857  0.28571429  0.64285714
  0.07142857  0.28571429  0.71428571
  0.07142857  0.28571429  0.78571429
  0.07142857  0.28571429  0.85714286
  0.07142857  0.28571429  0.92857143
  0.07142857  0.35714286  0.00000000
  0.07142857  0.35714286  0.07142857
  0.07142857  0.35714286  0.14285714
  0.07142857  0.35714286  0.21428571
  0.07142857  0.35714286  0.28571429
  0.07142857  0.35714286  0.35714286
  0.07142857  0.35714286  0.42857143
  0.07142857  0.35714286  0.50000000
  0.07142857  0.35714286  0.57142857
  0.07142857  0.35714286  0.64285714
  0.07142857  0.35714286  0.71428571
  0.07142857  0.35714286  0.78571429
  0.07142857  0.35714286  0.85714286
  0.07142857  0.35714286  0.92857143
  0.07142857  0.42857143  0.00000000
  0.07142857  0.42857143  0.07142857
  0.07142857  0.42857143  0.14285714
  0.07142857  0.42857143  0.21428571
  0.07142857  0.42857143  0.28571429
  0.07142857  0.42857143  0.35714286
  0.07142857  0.42857143  0.42857143
  0.07142857  0.42857143  0.50000000
  0.07142857  0.42857143  0.57142857
  0.07142857  0.42857143  0.64285714
  0.07142857  0.42857143  0.71428571
  0.07142857  0.42857143  0.78571429
  0.07142857  0.42857143  0.85714286
  0.07142857  0.42857143  0.92857143
  0.07142857  0.50000000  0.00000000
  0.07142857  0.50000000  0.07142857
  0.07142857  0.50000000  0.14285714
  0.07142857  0.50000000  0.21428571
  0.07142857  0.50000000  0.28571429
  0.07142857  0.50000000  0.35714286
  0.07142857  0.50000000  0.42857143
  0.07142857  0.50000000  0.50000000
  0.07142857  0.50000000  0.57142857
  0.07142857  0.50000000  0.64285714
  0.07142857  0.50000000  0.71428571
  0.07142857  0.50000000  0.78571429
  0.07142857  0.50000000  0.85714286
  0.07142857  0.50000000  0.92857143
  0.07142857  0.57142857  0.00000000
  0.07142857  0.57142857  0.07142857
  0.07142857  0.57142857  0.14285714
  0.07142857  0.57142857  0.21428571
  0.07142857  0.57142857  0.28571429
  0.07142857  0.57142857  0.35714286
  0.07142857  0.57142857  0.42857143
  0.07142857  0.57142857  0.50000000
  0.07142857  0.57142857  0.57142857
  0.07142857  0.57142857  0.64285714
  0.07142857  0.57142857  0.71428571
  0.07142857  0.57142857  0.78571429
  0.07142857  0.57142857  0.85714286
  0.07142857  0.57142857  0.92857143
  0.07142857  0.64285714  0.00000000
  0.07142857  0.64285714  0.07142857
  0.07142857  0.64285714  0.14285714
  0.07142857  0.64285714  0.21428571
  0.07142857  0.64285714  0.28571429
  0.07142857  0.64285714  0.35714286
  0.07142857  0.64285714  0.42857143
  0.07142857  0.64285714  0.50000000
  0.07142857  0.64285714  0.57142857
  0.07142857  0.64285714  0.64285714
  0.07142857  0.64285714  0.71428571
  0.07142857  0.64285714  0.78571429
  0.07142857  0.64285714  0.85714286
  0.07142857  0.64285714  0.92857143
  0.07142857  0.71428571  0.00000000
  0.07142857  0.71428571  0.07142857
  0.07142857  0.71428571  0.14285714
  0.07142857  0.71428571  0.21428571
  0.07142857  0.71428571  0.28571429
  0.07142857  0.71428571  0.35714286
  0.07142857  0.71428571  0.42857143
  0.07142857  0.71428571  0.50000000
  0.07142857  0.71428571  0.57142857
  0.07142857  0.71428571  0.64285714
  0.07142857  0.71428571  0.71428571
  0.07142857  0.71428571  0.78571429
  0.07142857  0.71428571  0.85714286
  0.07142857  0.71428571  0.92857143
  0.07142857  0.78571429  0.00000000
  0.07142857  0.78571429  0.07142857
  0.07142857  0.78571429  0.14285714
  0.07142857  0.78571429  0.21428571
  0.07142857  0.78571429  0.28571429
  0.07142857  0.78571429  0.35714286
  0.07142857  0.78571429  0.42857143
  0.07142857  0.78571429  0.50000000
  0.07142857  0.78571429  0.57142857
  0.07142857  0.78571429  0.64285714
  0.07142857  0.78571429  0.71428571
  0.07142857  0.78571429  0.78571429
  0.07142857  0.78571429  0.85714286
  0.07142857  0.78571429  0.92857143
  0.07142857  0.85714286  0.00000000
  0.07142857  0.85714286  0.07142857
  0.07142857  0.85714286  0.14285714
  0.07142857  0.85714286  0.21428571
  0.07142857  0.85714286  0.28571429
  0.07142857  0.85714286  0.35714286
  0.07142857  0.85714286  0.42857143
  0.07142857  0.85714286  0.50000000
  0.07142857  0.85714286  0.57142857
  0.07142857  0.85714286  0.64285714
  0.07142857  0.85714286  0.71428571
  0.07142857  0.85714286  0.78571429
  0.07142857  0.85714286  0.85714286
  0.07142857  0.85714286  0.92857143
  0.07142857  0.92857143  0.00000000
  0.07142857  0.92857143  0.07142857
  0.07142857  0.92857143  0.14285714
  0.07142857  0.92857143  0.21428571
  0.07142857  0.92857143  0.28571429
  0.07142857  0.92857143  0.35714286
  0.07142857  0.92857143  0.42857143
  0.07142857  0.92857143  0.50000000
  0.07142857  0.92857143  0.57142857
  0.07142857  0.92857143  0.64285714
  0.07142857  0.92857143  0.71428571
  0.07142857  0.92857143  0.78571429
  0.07142857  0.92857143  0.85714286
  0.07142857  0.92857143  0.92857143
  0.14285714  0.00000000  0.00000000
  0.14285714  0.00000000  0.07142857
  0.14285714  0.00000000  0.14285714
  0.14285714  0.00000000  0.21428571
  0.14285714  0.00000000  0.28571429
  0.14285714  0.00000000  0.35714286
  0.14285714  0.00000000  0.42857143
  0.14285714  0.00000000  0.50000000
  0.14285714  0.00000000  0.57142857
  0.14285714  0.00000000  0.64285714
  0.14285714  0.00000000  0.71428571
  0.14285714  0.00000000  0.78571429
  0.14285714  0.00000000  0.85714286
  0.14285714  0.00000000  0.92857143
  0.14285714  0.07142857  0.00000000
  0.14285714  0.07142857  0.07142857
  0.14285714  0.07142857  0.14285714
  0.14285714  0.07142857  0.21428571
  0.14285714  0.07142857  0.28571429
  0.14285714  0.07142857  0.35714286
  0.14285714  0.07142857  0.42857143
  0.14285714  0.07142857  0.50000000
  0.14285714  0.07142857  0.57142857
  0.14285714  0.07142857  0.64285714
  0.14285714  0.07142857  0.71428571
  0.14285714  0.07142857  0.78571429
  0.14285714  0.07142857  0.85714286
  0.14285714  0.07142857  0.92857143
  0.14285714  0.14285714  0.00000000
  0.14285714  0.14285714  0.07142857
  0.14285714  0.14285714  0.14285714
  0.14285714  0.14285714  0.21428571
  0.14285714  0.14285714  0.28571429
  0.14285714  0.14285714  0.35714286
  0.14285714  0.14285714  0.42857143
  0.14285714  0.14285714  0.50000000
  0.14285714  0.14285714  0.57142857
  0.14285714  0.14285714  0.64285714
  0.14285714  0.14285714  0.71428571
  0.14285714  0.14285714  0.78571429
  0.14285714  0.14285714  0.85714286
  0.14285714  0.14285714  0.92857143
  0.14285714  0.21428571  0.00000000
  0.14285714  0.21428571  0.07142857
  0.14285714  0.21428571  0.14285714
  0.14285714  0.21428571  0.21428571
  0.14285714  0.21428571  0.28571429
  0.14285714  0.21428571  0.35714286
  0.14285714  0.21428571  0.42857143
  0.14285714  0.21428571  0.50000000
  0.14285714  0.21428571  0.57142857
  0.14285714  0.21428571  0.64285714
  0.14285714  0.21428571  0.71428571
  0.14285714  0.21428571  0.78571429
  0.14285714  0.21428571  0.85714286
  0.14285714  0.21428571  0.92857143
  0.14285714  0.28571429  0.00000000
  0.14285714  0.28571429  0.07142857
  0.14285714  0.28571429  0.14285714
  0.14285714  0.28571429  0.21428571
  0.14285714  0.28571429  0.28571429
  0.14285714  0.28571429  0.35714286
  0.14285714  0.28571429  0.42857143
  0.14285714  0.28571429  0.50000000
  0.14285714  0.28571429  0.57142857
  0.14285714  0.28571429  0.64285714
  0.14285714  0.28571429  0.71428571
  0.14285714  0.28571429  0.78571429
  0.14285714  0.28571429  0.85714286
  0.14285714  0.28571429  0.92857143
  0.14285714  0.35714286  0.00000000
  0.14285714  0.35714286  0.07142857
  0.14285714  0.35714286  0.14285714
  0.14285714  0.35714286  0.21428571
  0.14285714  0.35714286  0.28571429
  0.14285714  0.35714286  0.35714286
  0.14285714  0.35714286  0.42857143
  0.14285714  0.35714286  0.50000000
  0.14285714  0.35714286  0.57142857
  0.14285714  0.35714286  0.64285714
  0.14285714  0.35714286  0.71428571
  0.14285714  0.35714286  0.78571429
  0.14285714  0.35714286  0.85714286
  0.14285714  0.35714286  0.92857143
  0.14285714  0.42857143  0.00000000
  0.14285714  0.42857143  0.07142857
  0.14285714  0.42857143  0.14285714
  0.14285714  0.42857143  0.21428571
  0.14285714  0.42857143  0.28571429
  0.14285714  0.42857143  0.35714286
  0.14285714  0.42857143  0.42857143
  0.14285714  0.42857143  0.50000000
  0.14285714  0.42857143  0.57142857
  0.14285714  0.42857143  0.64285714
  0.14285714  0.42857143  0.71428571
  0.14285714  0.42857143  0.78571429
  0.14285714  0.42857143  0.85714286
  0.14285714  0.42857143  0.92857143
  0.14285714  0.50000000  0.00000000
  0.14285714  0.50000000  0.07142857
  0.14285714  0.50000000  0.14285714
  0.14285714  0.50000000  0.21428571
  0.14285714  0.50000000  0.28571429
  0.14285714  0.50000000  0.35714286
  0.14285714  0.50000000  0.42857143
  0.14285714  0.50000000  0.50000000
  0.14285714  0.50000000  0.57142857
  0.14285714  0.50000000  0.64285714
  0.14285714  0.50000000  0.71428571
  0.14285714  0.50000000  0.78571429
  0.14285714  0.50000000  0.85714286
  0.14285714  0.50000000  0.92857143
  0.14285714  0.57142857  0.00000000
  0.14285714  0.57142857  0.07142857
  0.14285714  0.57142857  0.14285714
  0.14285714  0.57142857  0.21428571
  0.14285714  0.57142857  0.28571429
  0.14285714  0.57142857  0.35714286
  0.14285714  0.57142857  0.42857143
  0.14285714  0.57142857  0.50000000
  0.14285714  0.57142857  0.57142857
  0.14285714  0.57142857  0.64285714
  0.14285714  0.57142857  0.71428571
  0.14285714  0.57142857  0.78571429
  0.14285714  0.57142857  0.85714286
  0.14285714  0.57142857  0.92857143
  0.14285714  0.64285714  0.00000000
  0.14285714  0.64285714  0.07142857
  0.14285714  0.64285714  0.14285714
  0.14285714  0.64285714  0.21428571
  0.14285714  0.64285714  0.28571429
  0.14285714  0.64285714  0.35714286
  0.14285714  0.64285714  0.42857143
  0.14285714  0.64285714  0.50000000
  0.14285714  0.64285714  0.57142857
  0.14285714  0.64285714  0.64285714
  0.14285714  0.64285714  0.71428571
  0.14285714  0.64285714  0.78571429
  0.14285714  0.64285714  0.85714286
  0.14285714  0.64285714  0.92857143
  0.14285714  0.71428571  0.00000000
  0.14285714  0.71428571  0.07142857
  0.14285714  0.71428571  0.14285714
  0.14285714  0.71428571  0.21428571
  0.14285714  0.71428571  0.28571429
  0.14285714  0.71428571  0.35714286
  0.14285714  0.71428571  0.42857143
  0.14285714  0.71428571  0.50000000
  0.14285714  0.71428571  0.57142857
  0.14285714  0.71428571  0.64285714
  0.14285714  0.71428571  0.71428571
  0.14285714  0.71428571  0.78571429
  0.14285714  0.71428571  0.85714286
  0.14285714  0.71428571  0.92857143
  0.14285714  0.78571429  0.00000000
  0.14285714  0.78571429  0.07142857
  0.14285714  0.78571429  0.14285714
  0.14285714  0.78571429  0.21428571
  0.14285714  0.78571429  0.28571429
  0.14285714  0.78571429  0.35714286
  0.14285714  0.78571429  0.42857143
  0.14285714  0.78571429  0.50000000
  0.14285714  0.78571429  0.57142857
  0.14285714  0.78571429  0.64285714
  0.14285714  0.78571429  0.71428571
  0.14285714  0.78571429  0.78571429
  0.14285714  0.78571429  0.85714286
  0.14285714  0.78571429  0.92857143
  0.14285714  0.85714286  0.00000000
  0.14285714  0.85714286  0.07142857
  0.14285714  0.85714286  0.14285714
  0.14285714  0.85714286  0.21428571
  0.14285714  0.85714286  0.28571429
  0.14285714  0.85714286  0.35714286
  0.14285714  0.85714286  0.42857143
  0.14285714  0.85714286  0.50000000
  0.14285714  0.85714286  0.57142857
  0.14285714  0.85714286  0.64285714
  0.14285714  0.85714286  0.71428571
  0.14285714  0.85714286  0.78571429
  0.14285714  0.85714286  0.85714286
  0.14285714  0.85714286  0.92857143
  0.14285714  0.92857143  0.00000000
  0.14285714  0.92857143  0.07142857
  0.14285714  0.92857143  0.14285714
  0.14285714  0.92857143  0.21428571
  0.14285714  0.92857143  0.28571429
  0.14285714  0.92857143  0.35714286
  0.14285714  0.92857143  0.42857143
  0.14285714  0.92857143  0.50000000
  0.14285714  0.92857143  0.57142857
  0.14285714  0.92857143  0.64285714
  0.14285714  0.92857143  0.71428571
  0.14285714  0.92857143  0.78571429
  0.14285714  0.92857143  0.85714286
  0.14285714  0.92857143  0.92857143
  0.21428571  0.00000000  0.00000000
  0.21428571  0.00000000  0.07142857
  0.21428571  0.00000000  0.14285714
  0.21428571  0.00000000  0.21428571
  0.21428571  0.00000000  0.28571429
  0.21428571  0.00000000  0.35714286
  0.21428571  0.00000000  0.42857143
  0.21428571  0.00000000  0.50000000
  0.21428571  0.00000000  0.57142857
  0.21428571  0.00000000  0.64285714
  0.21428571  0.00000000  0.71428571
  0.21428571  0.00000000  0.78571429
  0.21428571  0.00000000  0.85714286
  0.21428571  0.00000000  0.92857143
  0.21428571  0.07142857  0.00000000
  0.21428571  0.07142857  0.07142857
  0.21428571  0.07142857  0.14285714
  0.21428571  0.07142857  0.21428571
  0.21428571  0.07142857  0.28571429
  0.21428571  0.07142857  0.35714286
  0.21428571  0.07142857  0.42857143
  0.21428571  0.07142857  0.50000000
  0.21428571  0.07142857  0.57142857
  0.21428571  0.07142857  0.64285714
  0.21428571  0.07142857  0.71428571
  0.21428571  0.07142857  0.78571429
  0.21428571  0.07142857  0.85714286
  0.21428571  0.07142857  0.92857143
  0.21428571  0.14285714  0.00000000
  0.21428571  0.14285714  0.07142857
  0.21428571  0.14285714  0.14285714
  0.21428571  0.14285714  0.21428571
  0.21428571  0.14285714  0.28571429
  0.21428571  0.14285714  0.35714286
  0.21428571  0.14285714  0.42857143
  0.21428571  0.14285714  0.50000000
  0.21428571  0.14285714  0.57142857
  0.21428571  0.14285714  0.64285714
  0.21428571  0.14285714  0.71428571
  0.21428571  0.14285714  0.78571429
  0.21428571  0.14285714  0.85714286
  0.21428571  0.14285714  0.92857143
  0.21428571  0.21428571  0.00000000
  0.21428571  0.21428571  0.07142857
  0.21428571  0.21428571  0.14285714
  0.21428571  0.21428571  0.21428571
  0.21428571  0.21428571  0.28571429
  0.21428571  0.21428571  0.35714286
  0.21428571  0.21428571  0.42857143
  0.21428571  0.21428571  0.50000000
  0.21428571  0.21428571  0.57142857
  0.21428571  0.21428571  0.64285714
  0.21428571  0.21428571  0.71428571
  0.21428571  0.21428571  0.78571429
  0.21428571  0.21428571  0.85714286
  0.21428571  0.21428571  0.92857143
  0.21428571  0.28571429  0.00000000
  0.21428571  0.28571429  0.07142857
  0.21428571  0.28571429  0.14285714
  0.21428571  0.28571429  0.21428571
  0.21428571  0.28571429  0.28571429
  0.21428571  0.28571429  0.35714286
  0.21428571  0.28571429  0.42857143
  0.21428571  0.28571429  0.50000000
  0.21428571  0.28571429  0.57142857
  0.21428571  0.28571429  0.64285714
  0.21428571  0.28571429  0.71428571
  0.21428571  0.28571429  0.78571429
  0.21428571  0.28571429  0.85714286
  0.21428571  0.28571429  0.92857143
  0.21428571  0.35714286  0.00000000
  0.21428571  0.35714286  0.07142857
  0.21428571  0.35714286  0.14285714
  0.21428571  0.35714286  0.21428571
  0.21428571  0.35714286  0.28571429
  0.21428571  0.35714286  0.35714286
  0.21428571  0.35714286  0.42857143
  0.21428571  0.35714286  0.50000000
  0.21428571  0.35714286  0.57142857
  0.21428571  0.35714286  0.64285714
  0.21428571  0.35714286  0.71428571
  0.21428571  0.35714286  0.78571429
  0.21428571  0.35714286  0.85714286
  0.21428571  0.35714286  0.92857143
  0.21428571  0.42857143  0.00000000
  0.21428571  0.42857143  0.07142857
  0.21428571  0.42857143  0.14285714
  0.21428571  0.42857143  0.21428571
  0.21428571  0.42857143  0.28571429
  0.21428571  0.42857143  0.35714286
  0.21428571  0.42857143  0.42857143
  0.21428571  0.42857143  0.50000000
  0.21428571  0.42857143  0.57142857
  0.21428571  0.42857143  0.64285714
  0.21428571  0.42857143  0.71428571
  0.21428571  0.42857143  0.78571429
  0.21428571  0.42857143  0.85714286
  0.21428571  0.42857143  0.92857143
  0.21428571  0.50000000  0.00000000
  0.21428571  0.50000000  0.07142857
  0.21428571  0.50000000  0.14285714
  0.21428571  0.50000000  0.21428571
  0.21428571  0.50000000  0.28571429
  0.21428571  0.50000000  0.35714286
  0.21428571  0.50000000  0.42857143
  0.21428571  0.50000000  0.50000000
  0.21428571  0.50000000  0.57142857
  0.21428571  0.50000000  0.64285714
  0.21428571  0.50000000  0.71428571
  0.21428571  0.50000000  0.78571429
  0.21428571  0.50000000  0.85714286
  0.21428571  0.50000000  0.92857143
  0.21428571  0.57142857  0.00000000
  0.21428571  0.57142857  0.07142857
  0.21428571  0.57142857  0.14285714
  0.21428571  0.57142857  0.21428571
  0.21428571  0.57142857  0.28571429
  0.21428571  0.57142857  0.35714286
  0.21428571  0.57142857  0.42857143
  0.21428571  0.57142857  0.50000000
  0.21428571  0.57142857  0.57142857
  0.21428571  0.57142857  0.64285714
  0.21428571  0.57142857  0.71428571
  0.21428571  0.57142857  0.78571429
  0.21428571  0.57142857  0.85714286
  0.21428571  0.57142857  0.92857143
  0.21428571  0.64285714  0.00000000
  0.21428571  0.64285714  0.07142857
  0.21428571  0.64285714  0.14285714
  0.21428571  0.64285714  0.21428571
  0.21428571  0.64285714  0.28571429
  0.21428571  0.64285714  0.35714286
  0.21428571  0.64285714  0.42857143
  0.21428571  0.64285714  0.50000000
  0.21428571  0.64285714  0.57142857
  0.21428571  0.64285714  0.64285714
  0.21428571  0.64285714  0.71428571
  0.21428571  0.64285714  0.78571429
  0.21428571  0.64285714  0.85714286
  0.21428571  0.64285714  0.92857143
  0.21428571  0.71428571  0.00000000
  0.21428571  0.71428571  0.07142857
  0.21428571  0.71428571  0.14285714
  0.21428571  0.71428571  0.21428571
  0.21428571  0.71428571  0.28571429
  0.21428571  0.71428571  0.35714286
  0.21428571  0.71428571  0.42857143
  0.21428571  0.71428571  0.50000000
  0.21428571  0.71428571  0.57142857
  0.21428571  0.71428571  0.64285714
  0.21428571  0.71428571  0.71428571
  0.21428571  0.71428571  0.78571429
  0.21428571  0.71428571  0.85714286
  0.21428571  0.71428571  0.92857143
  0.21428571  0.78571429  0.00000000
  0.21428571  0.78571429  0.07142857
  0.21428571  0.78571429  0.14285714
  0.21428571  0.78571429  0.21428571
  0.21428571  0.78571429  0.28571429
  0.21428571  0.78571429  0.35714286
  0.21428571  0.78571429  0.42857143
  0.21428571  0.78571429  0.50000000
  0.21428571  0.78571429  0.57142857
  0.21428571  0.78571429  0.64285714
  0.21428571  0.78571429  0.71428571
  0.21428571  0.78571429  0.78571429
  0.21428571  0.78571429  0.85714286
  0.21428571  0.78571429  0.92857143
  0.21428571  0.85714286  0.00000000
  0.21428571  0.85714286  0.07142857
  0.21428571  0.85714286  0.14285714
  0.21428571  0.85714286  0.21428571
  0.21428571  0.85714286  0.28571429
  0.21428571  0.85714286  0.35714286
  0.21428571  0.85714286  0.42857143
  0.21428571  0.85714286  0.50000000
  0.21428571  0.85714286  0.57142857