num_bands         =  25
num_wann          =  25

dis_win_min       = -5.0d0
dis_win_max       = 40.0d0
dis_froz_min      = 0.0d0
dis_froz_max      =  40.0d0
dis_num_iter      =  500

num_iter          = 200
dis_mix_ratio = 1.0

# spinors = true
begin projections
Sm: s;p;d;f  # fz3;fz(x2-y2);fx(x2-3y2);fy(3x2-y2);fxz2;fyz2;fxyz
Sm: sp3d
N: px;py;pz;s
end projections

fermi_energy = ???

iprint = 2

#berry = true
#berry_task = morb
#berry_kmesh = 25 25 25

kpath = true
kpath_task = bands
kpath_num_points=100 # numpts for the first line
begin kpoint_path
G 0.000 0.000 0.000   X 0.000 1.000 0.000
X 0.000 1.000 0.000   W 0.500 1.000 0.000
W 0.500 1.000 0.000   K 0.750 0.750 0.000
K 0.750 0.750 0.000   G 0.000 0.000 0.000
G 0.000 0.000 0.000   L 0.500 0.500 0.500
L 0.500 0.500 0.500   U 0.250 1.000 0.250
U 0.250 1.000 0.250   W 0.500 1.000 0.000
W 0.500 1.000 0.000   L 0.500 0.500 0.500
L 0.500 0.500 0.500   K 0.750 0.750 0.000
K 0.750 0.750 0.000   U 0.250 1.000 0.250
U 0.250 1.000 0.250   X 0.000 1.000 0.000
end kpoint_path

# boltz_calc_also_dos = true
# dos = true
# dos_kmesh = 21

#kslice = true
#kslice_task = morb+fermi_lines
#kslice_2dkmesh = 50 50
#kslice_corner = 0.0  0.0  0.0
#kslice_b1 =     0.5 -0.5 -0.5
#kslice_b2 =     0.5  0.5  0.5

begin unit_cell_cart
Ang
???
???
???
end unit_cell_cart

begin atoms_frac
Sm           0.0000000000       0.0000000000       0.0000000000
N            0.5000000000       0.5000000000       0.5000000000
end atoms_frac

mp_grid           = 14 14 14

begin kpoints
  0.00000000  0.00000000  0.00000000
  0.00000000  0.00000000  0.07142857
  0.00000000  0.00000000  0.14285714
  0.00000000  0.00000000  0.21428571
  0.00000000  0.00000000  0.28571429
  0.00000000  0.00000000  0.35714286
  0.00000000  0.00000000  0.42857143
  0.00000000  0.00000000  0.50000000
  0.00000000  0.00000000  0.57142857
  0.00000000  0.00000000  0.64285714
  0.00000000  0.00000000  0.71428571
  0.00000000  0.00000000  0.78571429
  0.00000000  0.00000000  0.85714286
  0.00000000  0.00000000  0.92857143
  0.00000000  0.07142857  0.00000000
  0.00000000  0.07142857  0.07142857
  0.00000000  0.07142857  0.14285714
  0.00000000  0.07142857  0.21428571
  0.00000000  0.07142857  0.28571429
  0.00000000  0.07142857  0.35714286
  0.00000000  0.07142857  0.42857143
  0.00000000  0.07142857  0.50000000
  0.00000000  0.07142857  0.57142857
  0.00000000  0.07142857  0.64285714
  0.00000000  0.07142857  0.71428571
  0.00000000  0.07142857  0.78571429
  0.00000000  0.07142857  0.85714286
  0.00000000  0.07142857  0.92857143
  0.00000000  0.14285714  0.00000000
  0.00000000  0.14285714  0.07142857
  0.00000000  0.14285714  0.14285714
  0.00000000  0.14285714  0.21428571
  0.00000000  0.14285714  0.28571429
  0.00000000  0.14285714  0.35714286
  0.00000000  0.14285714  0.42857143
  0.00000000  0.14285714  0.50000000
  0.00000000  0.14285714  0.57142857
  0.00000000  0.14285714  0.64285714
  0.00000000  0.14285714  0.71428571
  0.00000000  0.14285714  0.78571429
  0.00000000  0.14285714  0.85714286
  0.00000000  0.14285714  0.92857143
  0.00000000  0.21428571  0.00000000
  0.00000000  0.21428571  0.07142857
  0.00000000  0.21428571  0.14285714
  0.00000000  0.21428571  0.21428571
  0.00000000  0.21428571  0.28571429
  0.00000000  0.21428571  0.35714286
  0.00000000  0.21428571  0.42857143
  0.00000000  0.21428571  0.50000000
  0.00000000  0.21428571  0.57142857
  0.00000000  0.21428571  0.64285714
  0.00000000  0.21428571  0.71428571
  0.00000000  0.21428571  0.78571429
  0.00000000  0.21428571  0.85714286
  0.00000000  0.21428571  0.92857143
  0.00000000  0.28571429  0.00000000
  0.00000000  0.28571429  0.07142857
  0.00000000  0.28571429  0.14285714
  0.00000000  0.28571429  0.21428571
  0.00000000  0.28571429  0.28571429
  0.00000000  0.28571429  0.35714286
  0.00000000  0.28571429  0.42857143
  0.00000000  0.28571429  0.50000000
  0.00000000  0.28571429  0.57142857
  0.00000000  0.28571429  0.64285714
  0.00000000  0.28571429  0.71428571
  0.00000000  0.28571429  0.78571429
  0.00000000  0.28571429  0.85714286
  0.00000000  0.28571429  0.92857143
  0.00000000  0.35714286  0.00000000
  0.00000000  0.35714286  0.07142857
  0.00000000  0.35714286  0.14285714
  0.00000000  0.35714286  0.21428571
  0.00000000  0.35714286  0.28571429
  0.00000000  0.35714286  0.35714286
  0.00000000  0.35714286  0.42857143
  0.00000000  0.35714286  0.50000000
  0.00000000  0.35714286  0.57142857
  0.00000000  0.35714286  0.64285714
  0.00000000  0.35714286  0.71428571
  0.00000000  0.35714286  0.78571429
  0.00000000  0.35714286  0.85714286
  0.00000000  0.35714286  0.92857143
  0.00000000  0.42857143  0.00000000
  0.00000000  0.42857143  0.07142857
  0.00000000  0.42857143  0.14285714
  0.00000000  0.42857143  0.21428571
  0.00000000  0.42857143  0.28571429
  0.00000000  0.42857143  0.35714286
  0.00000000  0.42857143  0.42857143
  0.00000000  0.42857143  0.50000000
  0.00000000  0.42857143  0.57142857
  0.00000000  0.42857143  0.64285714
  0.00000000  0.42857143  0.71428571
  0.00000000  0.42857143  0.78571429
  0.00000000  0.42857143  0.85714286
  0.00000000  0.42857143  0.92857143
  0.00000000  0.50000000  0.00000000
  0.00000000  0.50000000  0.07142857
  0.00000000  0.50000000  0.14285714
  0.00000000  0.50000000  0.21428571
  0.00000000  0.50000000  0.28571429
  0.00000000  0.50000000  0.35714286
  0.00000000  0.50000000  0.42857143
  0.00000000  0.50000000  0.50000000
  0.00000000  0.50000000  0.57142857
  0.00000000  0.50000000  0.64285714
  0.00000000  0.50000000  0.71428571
  0.00000000  0.50000000  0.78571429
  0.00000000  0.50000000  0.85714286
  0.00000000  0.50000000  0.92857143
  0.00000000  0.57142857  0.00000000
  0.00000000  0.57142857  0.07142857
  0.00000000  0.57142857  0.14285714
  0.00000000  0.57142857  0.21428571
  0.00000000  0.57142857  0.28571429
  0.00000000  0.57142857  0.35714286
  0.00000000  0.57142857  0.42857143
  0.00000000  0.57142857  0.50000000
  0.00000000  0.57142857  0.57142857
  0.00000000  0.57142857  0.64285714
  0.00000000  0.57142857  0.71428571
  0.00000000  0.57142857  0.78571429
  0.00000000  0.57142857  0.85714286
  0.00000000  0.57142857  0.92857143
  0.00000000  0.64285714  0.00000000
  0.00000000  0.64285714  0.07142857
  0.00000000  0.64285714  0.14285714
  0.00000000  0.64285714  0.21428571
  0.00000000  0.64285714  0.28571429
  0.00000000  0.64285714  0.35714286
  0.00000000  0.64285714  0.42857143
  0.00000000  0.64285714  0.50000000
  0.00000000  0.64285714  0.57142857
  0.00000000  0.64285714  0.64285714
  0.00000000  0.64285714  0.71428571
  0.00000000  0.64285714  0.78571429
  0.00000000  0.64285714  0.85714286
  0.00000000  0.64285714  0.92857143
  0.00000000  0.71428571  0.00000000
  0.00000000  0.71428571  0.07142857
  0.00000000  0.71428571  0.14285714
  0.00000000  0.71428571  0.21428571
  0.00000000  0.71428571  0.28571429
  0.00000000  0.71428571  0.35714286
  0.00000000  0.71428571  0.42857143
  0.00000000  0.71428571  0.50000000
  0.00000000  0.71428571  0.57142857
  0.00000000  0.71428571  0.64285714
  0.00000000  0.71428571  0.71428571
  0.00000000  0.71428571  0.78571429
  0.00000000  0.71428571  0.85714286
  0.00000000  0.71428571  0.92857143
  0.00000000  0.78571429  0.00000000
  0.00000000  0.78571429  0.07142857
  0.00000000  0.78571429  0.14285714
  0.00000000  0.78571429  0.21428571
  0.00000000  0.78571429  0.28571429
  0.00000000  0.78571429  0.35714286
  0.00000000  0.78571429  0.42857143
  0.00000000  0.78571429  0.50000000
  0.00000000  0.78571429  0.57142857
  0.00000000  0.78571429  0.64285714
  0.00000000  0.78571429  0.71428571
  0.00000000  0.78571429  0.78571429
  0.00000000  0.78571429  0.85714286
  0.00000000  0.78571429  0.92857143
  0.00000000  0.85714286  0.00000000
  0.00000000  0.85714286  0.07142857
  0.00000000  0.85714286  0.14285714
  0.00000000  0.85714286  0.21428571
  0.00000000  0.85714286  0.28571429
  0.00000000  0.85714286  0.35714286
  0.00000000  0.85714286  0.42857143
  0.00000000  0.85714286  0.50000000
  0.00000000  0.85714286  0.57142857
  0.00000000  0.85714286  0.64285714
  0.00000000  0.85714286  0.71428571
  0.00000000  0.85714286  0.78571429
  0.00000000  0.85714286  0.85714286
  0.00000000  0.85714286  0.92857143
  0.00000000  0.92857143  0.00000000
  0.00000000  0.92857143  0.07142857
  0.00000000  0.92857143  0.14285714
  0.00000000  0.92857143  0.21428571
  0.00000000  0.92857143  0.28571429
  0.00000000  0.92857143  0.35714286
  0.00000000  0.92857143  0.42857143
  0.00000000  0.92857143  0.50000000
  0.00000000  0.92857143  0.57142857
  0.00000000  0.92857143  0.64285714
  0.00000000  0.92857143  0.71428571
  0.00000000  0.92857143  0.78571429
  0.00000000  0.92857143  0.85714286
  0.00000000  0.92857143  0.92857143
  0.07142857  0.00000000  0.00000000
  0.07142857  0.00000000  0.07142857
  0.07142857  0.00000000  0.14285714
  0.07142857  0.00000000  0.21428571
  0.07142857  0.00000000  0.28571429
  0.07142857  0.00000000  0.35714286
  0.07142857  0.00000000  0.42857143
  0.07142857  0.00000000  0.50000000
  0.07142857  0.00000000  0.57142857
  0.07142857  0.00000000  0.64285714
  0.07142857  0.00000000  0.71428571
  0.07142857  0.00000000  0.78571429
  0.07142857  0.00000000  0.85714286
  0.07142857  0.00000000  0.92857143
  0.07142857  0.07142857  0.00000000
  0.07142857  0.07142857  0.07142857
  0.07142857  0.07142857  0.14285714
  0.07142857  0.07142857  0.21428571
  0.07142857  0.07142857  0.28571429
  0.07142857  0.07142857  0.35714286
  0.07142857  0.07142857  0.42857143
  0.07142857  0.07142857  0.50000000
  0.07142857  0.07142857  0.57142857
  0.07142857  0.07142857  0.64285714
  0.07142857  0.07142857  0.71428571
  0.07142857  0.07142857  0.78571429
  0.07142857  0.07142857  0.85714286
  0.07142857  0.07142857  0.92857143
  0.07142857  0.14285714  0.00000000
  0.07142857  0.14285714  0.07142857
  0.07142857  0.14285714  0.14285714
  0.07142857  0.14285714  0.21428571
  0.07142857  0.14285714  0.28571429
  0.07142857  0.14285714  0.35714286
  0.07142857  0.14285714  0.42857143
  0.07142857  0.14285714  0.50000000
  0.07142857  0.14285714  0.57142857
  0.07142857  0.14285714  0.64285714
  0.07142857  0.14285714  0.71428571
  0.07142857  0.14285714  0.78571429
  0.07142857  0.14285714  0.85714286
  0.07142857  0.14285714  0.92857143
  0.07142857  0.21428571  0.00000000
  0.07142857  0.21428571  0.07142857
  0.07142857  0.21428571  0.14285714
  0.07142857  0.21428571  0.21428571
  0.07142857  0.21428571  0.28571429
  0.07142857  0.21428571  0.35714286
  0.07142857  0.21428571  0.42857143
  0.07142857  0.21428571  0.50000000
  0.07142857  0.21428571  0.57142857
  0.07142857  0.21428571  0.64285714
  0.07142857  0.21428571  0.71428571
  0.07142857  0.21428571  0.78571429
  0.07142857  0.21428571  0.85714286
  0.07142857  0.21428571  0.92857143
  0.07142857  0.28571429  0.00000000
  0.07142857  0.28571429  0.07142857
  0.07142857  0.28571429  0.14285714
  0.07142857  0.28571429  0.21428571
  0.07142857  0.28571429  0.28571429
  0.07142857  0.28571429  0.35714286
  0.07142857  0.28571429  0.42857143
  0.07142857  0.28571429  0.50000000
  0.07142857  0.28571429  0.57142857
  0.07142857  0.28571429  0.64285714
  0.07142857  0.28571429  0.71428571
  0.07142857  0.28571429  0.78571429
  0.07142857  0.28571429  0.85714286
  0.07142857  0.28571429  0.92857143
  0.07142857  0.35714286  0.00000000
  0.07142857  0.35714286  0.07142857
  0.07142857  0.35714286  0.14285714
  0.07142857  0.35714286  0.21428571
  0.07142857  0.35714286  0.28571429
  0.07142857  0.35714286  0.35714286
  0.07142857  0.35714286  0.42857143
  0.07142857  0.35714286  0.50000000
  0.07142857  0.35714286  0.57142857
  0.07142857  0.35714286  0.64285714
  0.07142857  0.35714286  0.71428571
  0.07142857  0.35714286  0.78571429
  0.07142857  0.35714286  0.85714286
  0.07142857  0.35714286  0.92857143
  0.07142857  0.42857143  0.00000000
  0.07142857  0.42857143  0.07142857
  0.07142857  0.42857143  0.14285714
  0.07142857  0.42857143  0.21428571
  0.07142857  0.42857143  0.28571429
  0.07142857  0.42857143  0.35714286
  0.07142857  0.42857143  0.42857143
  0.07142857  0.42857143  0.50000000
  0.07142857  0.42857143  0.57142857
  0.07142857  0.42857143  0.64285714
  0.07142857  0.42857143  0.71428571
  0.07142857  0.42857143  0.78571429
  0.07142857  0.42857143  0.85714286
  0.07142857  0.42857143  0.92857143
  0.07142857  0.50000000  0.00000000
  0.07142857  0.50000000  0.07142857
  0.07142857  0.50000000  0.14285714
  0.07142857  0.50000000  0.21428571
  0.07142857  0.50000000  0.28571429
  0.07142857  0.50000000  0.35714286
  0.07142857  0.50000000  0.42857143
  0.07142857  0.50000000  0.50000000
  0.07142857  0.50000000  0.57142857
  0.07142857  0.50000000  0.64285714
  0.07142857  0.50000000  0.71428571
  0.07142857  0.50000000  0.78571429
  0.07142857  0.50000000  0.85714286
  0.07142857  0.50000000  0.92857143
  0.07142857  0.57142857  0.00000000
  0.07142857  0.57142857  0.07142857
  0.07142857  0.57142857  0.14285714
  0.07142857  0.57142857  0.21428571
  0.07142857  0.57142857  0.28571429
  0.07142857  0.57142857  0.35714286
  0.07142857  0.57142857  0.42857143
  0.07142857  0.57142857  0.50000000
  0.07142857  0.57142857  0.57142857
  0.07142857  0.57142857  0.64285714
  0.07142857  0.57142857  0.71428571
  0.07142857  0.57142857  0.78571429
  0.07142857  0.57142857  0.85714286
  0.07142857  0.57142857  0.92857143
  0.07142857  0.64285714  0.00000000
  0.07142857  0.64285714  0.07142857
  0.07142857  0.64285714  0.14285714
  0.07142857  0.64285714  0.21428571
  0.07142857  0.64285714  0.28571429
  0.07142857  0.64285714  0.35714286
  0.07142857  0.64285714  0.42857143
  0.07142857  0.64285714  0.50000000
  0.07142857  0.64285714  0.57142857
  0.07142857  0.64285714  0.64285714
  0.07142857  0.64285714  0.71428571
  0.07142857  0.64285714  0.78571429
  0.07142857  0.64285714  0.85714286
  0.07142857  0.64285714  0.92857143
  0.07142857  0.71428571  0.00000000
  0.07142857  0.71428571  0.07142857
  0.07142857  0.71428571  0.14285714
  0.07142857  0.71428571  0.21428571
  0.07142857  0.71428571  0.28571429
  0.07142857  0.71428571  0.35714286
  0.07142857  0.71428571  0.42857143
  0.07142857  0.71428571  0.50000000
  0.07142857  0.71428571  0.57142857
  0.07142857  0.71428571  0.64285714
  0.07142857  0.71428571  0.71428571
  0.07142857  0.71428571  0.78571429
  0.07142857  0.71428571  0.85714286
  0.07142857  0.71428571  0.92857143
  0.07142857  0.78571429  0.00000000
  0.07142857  0.78571429  0.07142857
  0.07142857  0.78571429  0.14285714
  0.07142857  0.78571429  0.21428571
  0.07142857  0.78571429  0.28571429
  0.07142857  0.78571429  0.35714286
  0.07142857  0.78571429  0.42857143
  0.07142857  0.78571429  0.50000000
  0.07142857  0.78571429  0.57142857
  0.07142857  0.78571429  0.64285714
  0.07142857  0.78571429  0.71428571
  0.07142857  0.78571429  0.78571429
  0.07142857  0.78571429  0.85714286
  0.07142857  0.78571429  0.92857143
  0.07142857  0.85714286  0.00000000
  0.07142857  0.85714286  0.07142857
  0.07142857  0.85714286  0.14285714
  0.07142857  0.85714286  0.21428571
  0.07142857  0.85714286  0.28571429
  0.07142857  0.85714286  0.35714286
  0.07142857  0.85714286  0.42857143
  0.07142857  0.85714286  0.50000000
  0.07142857  0.85714286  0.57142857
  0.07142857  0.85714286  0.64285714
  0.07142857  0.85714286  0.71428571
  0.07142857  0.85714286  0.78571429
  0.07142857  0.85714286  0.85714286
  0.07142857  0.85714286  0.92857143
  0.07142857  0.92857143  0.00000000
  0.07142857  0.92857143  0.07142857
  0.07142857  0.92857143  0.14285714
  0.07142857  0.92857143  0.21428571
  0.07142857  0.92857143  0.28571429
  0.07142857  0.92857143  0.35714286
  0.07142857  0.92857143  0.42857143
  0.07142857  0.92857143  0.50000000
  0.07142857  0.92857143  0.57142857
  0.07142857  0.92857143  0.64285714
  0.07142857  0.92857143  0.71428571
  0.07142857  0.92857143  0.78571429
  0.07142857  0.92857143  0.85714286
  0.07142857  0.92857143  0.92857143
  0.14285714  0.00000000  0.00000000
  0.14285714  0.00000000  0.07142857
  0.14285714  0.00000000  0.14285714
  0.14285714  0.00000000  0.21428571
  0.14285714  0.00000000  0.28571429
  0.14285714  0.00000000  0.35714286
  0.14285714  0.00000000  0.42857143
  0.14285714  0.00000000  0.50000000
  0.14285714  0.00000000  0.57142857
  0.14285714  0.00000000  0.64285714
  0.14285714  0.00000000  0.71428571
  0.14285714  0.00000000  0.78571429
  0.14285714  0.00000000  0.85714286
  0.14285714  0.00000000  0.92857143
  0.14285714  0.07142857  0.00000000
  0.14285714  0.07142857  0.07142857
  0.14285714  0.07142857  0.14285714
  0.14285714  0.07142857  0.21428571
  0.14285714  0.07142857  0.28571429
  0.14285714  0.07142857  0.35714286
  0.14285714  0.07142857  0.42857143
  0.14285714  0.07142857  0.50000000
  0.14285714  0.07142857  0.57142857
  0.14285714  0.07142857  0.64285714
  0.14285714  0.07142857  0.71428571
  0.14285714  0.07142857  0.78571429
  0.14285714  0.07142857  0.85714286
  0.14285714  0.07142857  0.92857143
  0.14285714  0.14285714  0.00000000
  0.14285714  0.14285714  0.07142857
  0.14285714  0.14285714  0.14285714
  0.14285714  0.14285714  0.21428571
  0.14285714  0.14285714  0.28571429
  0.14285714  0.14285714  0.35714286
  0.14285714  0.14285714  0.42857143
  0.14285714  0.14285714  0.50000000
  0.14285714  0.14285714  0.57142857
  0.14285714  0.14285714  0.64285714
  0.14285714  0.14285714  0.71428571
  0.14285714  0.14285714  0.78571429
  0.14285714  0.14285714  0.85714286
  0.14285714  0.14285714  0.92857143
  0.14285714  0.21428571  0.00000000
  0.14285714  0.21428571  0.07142857
  0.14285714  0.21428571  0.14285714
  0.14285714  0.21428571  0.21428571
  0.14285714  0.21428571  0.28571429
  0.14285714  0.21428571  0.35714286
  0.14285714  0.21428571  0.42857143
  0.14285714  0.21428571  0.50000000
  0.14285714  0.21428571  0.57142857
  0.14285714  0.21428571  0.64285714
  0.14285714  0.21428571  0.71428571
  0.14285714  0.21428571  0.78571429
  0.14285714  0.21428571  0.85714286
  0.14285714  0.21428571  0.92857143
  0.14285714  0.28571429  0.00000000
  0.14285714  0.28571429  0.07142857
  0.14285714  0.28571429  0.14285714
  0.14285714  0.28571429  0.21428571
  0.14285714  0.28571429  0.28571429
  0.14285714  0.28571429  0.35714286
  0.14285714  0.28571429  0.42857143
  0.14285714  0.28571429  0.50000000
  0.14285714  0.28571429  0.57142857
  0.14285714  0.28571429  0.64285714
  0.14285714  0.28571429  0.71428571
  0.14285714  0.28571429  0.78571429
  0.14285714  0.28571429  0.85714286
  0.14285714  0.28571429  0.92857143
  0.14285714  0.35714286  0.00000000
  0.14285714  0.35714286  0.07142857
  0.14285714  0.35714286  0.14285714
  0.14285714  0.35714286  0.21428571
  0.14285714  0.35714286  0.28571429
  0.14285714  0.35714286  0.35714286
  0.14285714  0.35714286  0.42857143
  0.14285714  0.35714286  0.50000000
  0.14285714  0.35714286  0.57142857
  0.14285714  0.35714286  0.64285714
  0.14285714  0.35714286  0.71428571
  0.14285714  0.35714286  0.78571429
  0.14285714  0.35714286  0.85714286
  0.14285714  0.35714286  0.92857143
  0.14285714  0.42857143  0.00000000
  0.14285714  0.42857143  0.07142857
  0.14285714  0.42857143  0.14285714
  0.14285714  0.42857143  0.21428571
  0.14285714  0.42857143  0.28571429
  0.14285714  0.42857143  0.35714286
  0.14285714  0.42857143  0.42857143
  0.14285714  0.42857143  0.50000000
  0.14285714  0.42857143  0.57142857
  0.14285714  0.42857143  0.64285714
  0.14285714  0.42857143  0.71428571
  0.14285714  0.42857143  0.78571429
  0.14285714  0.42857143  0.85714286
  0.14285714  0.42857143  0.92857143
  0.14285714  0.50000000  0.00000000
  0.14285714  0.50000000  0.07142857
  0.14285714  0.50000000  0.14285714
  0.14285714  0.50000000  0.21428571
  0.14285714  0.50000000  0.28571429
  0.14285714  0.50000000  0.35714286
  0.14285714  0.50000000  0.42857143
  0.14285714  0.50000000  0.50000000
  0.14285714  0.50000000  0.57142857
  0.14285714  0.50000000  0.64285714
  0.14285714  0.50000000  0.71428571
  0.14285714  0.50000000  0.78571429
  0.14285714  0.50000000  0.85714286
  0.14285714  0.50000000  0.92857143
  0.14285714  0.57142857  0.00000000
  0.14285714  0.57142857  0.07142857
  0.14285714  0.57142857  0.14285714
  0.14285714  0.57142857  0.21428571
  0.14285714  0.57142857  0.28571429
  0.14285714  0.57142857  0.35714286
  0.14285714  0.57142857  0.42857143
  0.14285714  0.57142857  0.50000000
  0.14285714  0.57142857  0.57142857
  0.14285714  0.57142857  0.64285714
  0.14285714  0.57142857  0.71428571
  0.14285714  0.57142857  0.78571429
  0.14285714  0.57142857  0.85714286
  0.14285714  0.57142857  0.92857143
  0.14285714  0.64285714  0.00000000
  0.14285714  0.64285714  0.07142857
  0.14285714  0.64285714  0.14285714
  0.14285714  0.64285714  0.21428571
  0.14285714  0.64285714  0.28571429
  0.14285714  0.64285714  0.35714286
  0.14285714  0.64285714  0.42857143
  0.14285714  0.64285714  0.50000000
  0.14285714  0.64285714  0.57142857
  0.14285714  0.64285714  0.64285714
  0.14285714  0.64285714  0.71428571
  0.14285714  0.64285714  0.78571429
  0.14285714  0.64285714  0.85714286
  0.14285714  0.64285714  0.92857143
  0.14285714  0.71428571  0.00000000
  0.14285714  0.71428571  0.07142857
  0.14285714  0.71428571  0.14285714
  0.14285714  0.71428571  0.21428571
  0.14285714  0.71428571  0.28571429
  0.14285714  0.71428571  0.35714286
  0.14285714  0.71428571  0.42857143
  0.14285714  0.71428571  0.50000000
  0.14285714  0.71428571  0.57142857
  0.14285714  0.71428571  0.64285714
  0.14285714  0.71428571  0.71428571
  0.14285714  0.71428571  0.78571429
  0.14285714  0.71428571  0.85714286
  0.14285714  0.71428571  0.92857143
  0.14285714  0.78571429  0.00000000
  0.14285714  0.78571429  0.07142857
  0.14285714  0.78571429  0.14285714
  0.14285714  0.78571429  0.21428571
  0.14285714  0.78571429  0.28571429
  0.14285714  0.78571429  0.35714286
  0.14285714  0.78571429  0.42857143
  0.14285714  0.78571429  0.50000000
  0.14285714  0.78571429  0.57142857
  0.14285714  0.78571429  0.64285714
  0.14285714  0.78571429  0.71428571
  0.14285714  0.78571429  0.78571429
  0.14285714  0.78571429  0.85714286
  0.14285714  0.78571429  0.92857143
  0.14285714  0.85714286  0.00000000
  0.14285714  0.85714286  0.07142857
  0.14285714  0.85714286  0.14285714
  0.14285714  0.85714286  0.21428571
  0.14285714  0.85714286  0.28571429
  0.14285714  0.85714286  0.35714286
  0.14285714  0.85714286  0.42857143
  0.14285714  0.85714286  0.50000000
  0.14285714  0.85714286  0.57142857
  0.14285714  0.85714286  0.64285714
  0.14285714  0.85714286  0.71428571
  0.14285714  0.85714286  0.78571429
  0.14285714  0.85714286  0.85714286
  0.14285714  0.85714286  0.92857143
  0.14285714  0.92857143  0.00000000
  0.14285714  0.92857143  0.07142857
  0.14285714  0.92857143  0.14285714
  0.14285714  0.92857143  0.21428571
  0.14285714  0.92857143  0.28571429
  0.14285714  0.92857143  0.35714286
  0.14285714  0.92857143  0.42857143
  0.14285714  0.92857143  0.50000000
  0.14285714  0.92857143  0.57142857
  0.14285714  0.92857143  0.64285714
  0.14285714  0.92857143  0.71428571
  0.14285714  0.92857143  0.78571429
  0.14285714  0.92857143  0.85714286
  0.14285714  0.92857143  0.92857143
  0.21428571  0.00000000  0.00000000
  0.21428571  0.00000000  0.07142857
  0.21428571  0.00000000  0.14285714
  0.21428571  0.00000000  0.21428571
  0.21428571  0.00000000  0.28571429
  0.21428571  0.00000000  0.35714286
  0.21428571  0.00000000  0.42857143
  0.21428571  0.00000000  0.50000000
  0.21428571  0.00000000  0.57142857
  0.21428571  0.00000000  0.64285714
  0.21428571  0.00000000  0.71428571
  0.21428571  0.00000000  0.78571429
  0.21428571  0.00000000  0.85714286
  0.21428571  0.00000000  0.92857143
  0.21428571  0.07142857  0.00000000
  0.21428571  0.07142857  0.07142857
  0.21428571  0.07142857  0.14285714
  0.21428571  0.07142857  0.21428571
  0.21428571  0.07142857  0.28571429
  0.21428571  0.07142857  0.35714286
  0.21428571  0.07142857  0.42857143
  0.21428571  0.07142857  0.50000000
  0.21428571  0.07142857  0.57142857
  0.21428571  0.07142857  0.64285714
  0.21428571  0.07142857  0.71428571
  0.21428571  0.07142857  0.78571429
  0.21428571  0.07142857  0.85714286
  0.21428571  0.07142857  0.92857143
  0.21428571  0.14285714  0.00000000
  0.21428571  0.14285714  0.07142857
  0.21428571  0.14285714  0.14285714
  0.21428571  0.14285714  0.21428571
  0.21428571  0.14285714  0.28571429
  0.21428571  0.14285714  0.35714286
  0.21428571  0.14285714  0.42857143
  0.21428571  0.14285714  0.50000000
  0.21428571  0.14285714  0.57142857
  0.21428571  0.14285714  0.64285714
  0.21428571  0.14285714  0.71428571
  0.21428571  0.14285714  0.78571429
  0.21428571  0.14285714  0.85714286
  0.21428571  0.14285714  0.92857143
  0.21428571  0.21428571  0.00000000
  0.21428571  0.21428571  0.07142857
  0.21428571  0.21428571  0.14285714
  0.21428571  0.21428571  0.21428571
  0.21428571  0.21428571  0.28571429
  0.21428571  0.21428571  0.35714286
  0.21428571  0.21428571  0.42857143
  0.21428571  0.21428571  0.50000000
  0.21428571  0.21428571  0.57142857
  0.21428571  0.21428571  0.64285714
  0.21428571  0.21428571  0.71428571
  0.21428571  0.21428571  0.78571429
  0.21428571  0.21428571  0.85714286
  0.21428571  0.21428571  0.92857143
  0.21428571  0.28571429  0.00000000
  0.21428571  0.28571429  0.07142857
  0.21428571  0.28571429  0.14285714
  0.21428571  0.28571429  0.21428571
  0.21428571  0.28571429  0.28571429
  0.21428571  0.28571429  0.35714286
  0.21428571  0.28571429  0.42857143
  0.21428571  0.28571429  0.50000000
  0.21428571  0.28571429  0.57142857
  0.21428571  0.28571429  0.64285714
  0.21428571  0.28571429  0.71428571
  0.21428571  0.28571429  0.78571429
  0.21428571  0.28571429  0.85714286
  0.21428571  0.28571429  0.92857143
  0.21428571  0.35714286  0.00000000
  0.21428571  0.35714286  0.07142857
  0.21428571  0.35714286  0.14285714
  0.21428571  0.35714286  0.21428571
  0.21428571  0.35714286  0.28571429
  0.21428571  0.35714286  0.35714286
  0.21428571  0.35714286  0.42857143
  0.21428571  0.35714286  0.50000000
  0.21428571  0.35714286  0.57142857
  0.21428571  0.35714286  0.64285714
  0.21428571  0.35714286  0.71428571
  0.21428571  0.35714286  0.78571429
  0.21428571  0.35714286  0.85714286
  0.21428571  0.35714286  0.92857143
  0.21428571  0.42857143  0.00000000
  0.21428571  0.42857143  0.07142857
  0.21428571  0.42857143  0.14285714
  0.21428571  0.42857143  0.21428571
  0.21428571  0.42857143  0.28571429
  0.21428571  0.42857143  0.35714286
  0.21428571  0.42857143  0.42857143
  0.21428571  0.42857143  0.50000000
  0.21428571  0.42857143  0.57142857
  0.21428571  0.42857143  0.64285714
  0.21428571  0.42857143  0.71428571
  0.21428571  0.42857143  0.78571429
  0.21428571  0.42857143  0.85714286
  0.21428571  0.42857143  0.92857143
  0.21428571  0.50000000  0.00000000
  0.21428571  0.50000000  0.07142857
  0.21428571  0.50000000  0.14285714
  0.21428571  0.50000000  0.21428571
  0.21428571  0.50000000  0.28571429
  0.21428571  0.50000000  0.35714286
  0.21428571  0.50000000  0.42857143
  0.21428571  0.50000000  0.50000000
  0.21428571  0.50000000  0.57142857
  0.21428571  0.50000000  0.64285714
  0.21428571  0.50000000  0.71428571
  0.21428571  0.50000000  0.78571429
  0.21428571  0.50000000  0.85714286
  0.21428571  0.50000000  0.92857143
  0.21428571  0.57142857  0.00000000
  0.21428571  0.57142857  0.07142857
  0.21428571  0.57142857  0.14285714
  0.21428571  0.57142857  0.21428571
  0.21428571  0.57142857  0.28571429
  0.21428571  0.57142857  0.35714286
  0.21428571  0.57142857  0.42857143
  0.21428571  0.57142857  0.50000000
  0.21428571  0.57142857  0.57142857
  0.21428571  0.57142857  0.64285714
  0.21428571  0.57142857  0.71428571
  0.21428571  0.57142857  0.78571429
  0.21428571  0.57142857  0.85714286
  0.21428571  0.57142857  0.92857143
  0.21428571  0.64285714  0.00000000
  0.21428571  0.64285714  0.07142857
  0.21428571  0.64285714  0.14285714
  0.21428571  0.64285714  0.21428571
  0.21428571  0.64285714  0.28571429
  0.21428571  0.64285714  0.35714286
  0.21428571  0.64285714  0.42857143
  0.21428571  0.64285714  0.50000000
  0.21428571  0.64285714  0.57142857
  0.21428571  0.64285714  0.64285714
  0.21428571  0.64285714  0.71428571
  0.21428571  0.64285714  0.78571429
  0.21428571  0.64285714  0.85714286
  0.21428571  0.64285714  0.92857143
  0.21428571  0.71428571  0.00000000
  0.21428571  0.71428571  0.07142857
  0.21428571  0.71428571  0.14285714
  0.21428571  0.71428571  0.21428571
  0.21428571  0.71428571  0.28571429
  0.21428571  0.71428571  0.35714286
  0.21428571  0.71428571  0.42857143
  0.21428571  0.71428571  0.50000000
  0.21428571  0.71428571  0.57142857
  0.21428571  0.71428571  0.64285714
  0.21428571  0.71428571  0.71428571
  0.21428571  0.71428571  0.78571429
  0.21428571  0.71428571  0.85714286
  0.21428571  0.71428571  0.92857143
  0.21428571  0.78571429  0.00000000
  0.21428571  0.78571429  0.07142857
  0.21428571  0.78571429  0.14285714
  0.21428571  0.78571429  0.21428571
  0.21428571  0.78571429  0.28571429
  0.21428571  0.78571429  0.35714286
  0.21428571  0.78571429  0.42857143
  0.21428571  0.78571429  0.50000000
  0.21428571  0.78571429  0.57142857
  0.21428571  0.78571429  0.64285714
  0.21428571  0.78571429  0.71428571
  0.21428571  0.78571429  0.78571429
  0.21428571  0.78571429  0.85714286
  0.21428571  0.78571429  0.92857143
  0.21428571  0.85714286  0.00000000
  0.21428571  0.85714286  0.07142857
  0.21428571  0.85714286  0.14285714
  0.21428571  0.85714286  0.21428571
  0.21428571  0.85714286  0.28571429
  0.21428571  0.85714286  0.35714286
  0.21428571  0.85714286  0.42857143
  0.21428571  0.85714286  0.50000000
  0.21428571  0.85714286  0.57142857
  0.21428571  0.85714286  0.64285714
  0.21428571  0.85714286  0.71428571
  0.21428571  0.85714286  0.78571429
  0.21428571  0.85714286  0.85714286