&BANDS
 outdir='/nfs/scratch2/trewicedwa/GdN_TED/out/',
 prefix='GdN_TED',
 filband='GdN_TED-S2.bands',
 spin_component=2,
/
