&inputpp
   outdir = '/nfs/scratch2/trewicedwa/GdN_TED/out/'
   prefix = 'GdN_TED'
   seedname = 'GdN_TED_dw'
   spin_component = 'down'
   write_mmn = .true.
   write_amn = .true.
   write_uHu = .false.
   write_spn = .false.
   write_unk = .false.
/
