&CONTROL
  calculation = 'bands'
  title = 'GdN_TED_bands'
  verbosity = 'high'
  restart_mode = 'from_scratch'
  etot_conv_thr =   8.0000000000d-05
  forc_conv_thr =   1.0000000000d-04
  outdir = '/nfs/scratch2/trewicedwa/GdN_TED/out/'
  prefix = 'GdN_TED'
  pseudo_dir = '/nfs/home/trewicedwa/orbitalMagnetism/pseudo/'
  disk_io = 'low'
  tprnfor = .true.
  tstress = .true.
/
&SYSTEM
  degauss =   1.4699723600d-02
  ecutrho =   320
  ecutwfc =   80
  ibrav = 0
  nat = 2
  nosym = .true.
  noncolin = .TRUE.
  ntyp = 2
  nbnd = 25 ! num Kohn-Sham states
  occupations = 'smearing'
  starting_magnetization(1) =   1.0
  starting_magnetization(2) =   0.0
  lda_plus_u=.true.
  lda_plus_u_kind=0
  Hubbard_U(1) = 8.4
  Hubbard_U_back(1) = 6.6
/
&ELECTRONS
  conv_thr =   1.6000000000d-09
  electron_maxstep = 80
  mixing_beta =   4.0000000000d-01
/
&IONS
/
&CELL
/
CELL_PARAMETERS angstrom
2.5874537 2.5874537 0.0000000
0.0000000 2.5874537 2.5874537
2.5874537 0.0000000 2.5874537
ATOMIC_SPECIES
Gd     157.25   Gd.rel-pbesol-spdfn-kjpaw_psl.1.0.0.UPF
N      14.0067  N.rel-pbesol-n-kjpaw_psl.1.0.0.UPF
ATOMIC_POSITIONS (crystal)
Gd           0.0000000000       0.0000000000       0.0000000000
N            0.5000000000       0.5000000000       0.5000000000
K_POINTS tpiba_b  ! FCC GXWKGLUWLK|UX
12  ! total points = 647
0.000 0.000 0.000  100  ! G
0.000 1.000 0.000   50  ! X
0.500 1.000 0.000   36  ! W
0.750 0.750 0.000  107  ! K
0.000 0.000 0.000   87  ! G
0.500 0.500 0.500   62  ! L
0.250 1.000 0.250   36  ! U
0.500 1.000 0.000   71  ! W
0.500 0.500 0.500   62  ! L
0.750 0.750 0.000    0  ! K
0.250 1.000 0.250   36  ! U
0.000 1.000 0.000    0  ! X
