&CONTROL
  calculation = 'scf'
  verbosity = 'high'
  restart_mode = 'from_scratch'
  etot_conv_thr =   8.0000000000d-05
  forc_conv_thr =   1.0000000000d-04
  outdir = '/nfs/scratch/trewicedwa/GdN_rel/out/'
  prefix = 'GdN_rel'
  pseudo_dir = '/nfs/home/trewicedwa/orbitalMagnetism/pseudo/'
  disk_io = 'low'
  tprnfor = .false.
  tstress = .false.
/
&SYSTEM
  degauss =   1.4699723600d-02
  ecutrho =   769
  ecutwfc =   118
  ibrav = 0
  nat = 2
  nosym = .false.
  noncolin = .true.
  lspinorb = .true.
  ntyp = 2
  occupations = 'smearing'
  starting_magnetization(1) =   1.0
  starting_magnetization(2) =   0.0
/
&ELECTRONS
  conv_thr =   1.6000000000d-08
  electron_maxstep = 1000
  mixing_beta =   4.0000000000d-01
/
&IONS
/
&CELL
/
CELL_PARAMETERS (angstrom)
  2.4995 0.0000 2.4995
  2.4995 2.4995 0.0000
  0.0000 2.4995 2.4995
ATOMIC_SPECIES
Gd     157.25   Gd.rel-pbesol-spdfn-kjpaw_psl.1.0.0.UPF
N      14.0067  N.rel-pbesol-n-kjpaw_psl.1.0.0.UPF
ATOMIC_POSITIONS (crystal)
Gd           0.0000000000       0.0000000000       0.0000000000
N            0.5000000000       0.5000000000       0.5000000000
K_POINTS automatic
14 14 14 0 0 0
HUBBARD ortho-atomic
U Gd-4F 8.4
U Gd-5D 6.6

