&inputpp
   outdir = '/nfs/scratch/trewicedwa/GdN_rel/out/'
   prefix = 'GdN_rel'
   seedname = 'GdN_rel'
   write_mmn = .true.
   write_amn = .true.
   write_uHu = .true.
   write_spn = .true.
   write_unk = .true.
/
