&PROJWFC
 outdir='/nfs/scratch/trewicedwa/GdN_rel/out_B/',
 prefix='GdN_rel',
 filband='Brel.bands',
/
