&DOS
  prefix='%prefix%',
  outdir='%outdir%',
  fildos='%fildos%'
/
